\* U11R08_energy_weights *\
Minimize
OBJ: w_008
Subject To
_C1: d_000 - 0.0181818181818 w_000 >= -1
_C10: d_004 + 0.0909090909091 w_004 >= 1
_C11: d_005 - 0.166666666667 w_005 >= -1
_C12: d_005 + 0.166666666667 w_005 >= 1
_C13: d_006 - 0.047619047619 w_006 >= -1
_C14: d_006 + 0.047619047619 w_006 >= 1
_C15: d_007 - 0.0555555555556 w_007 >= -1
_C16: d_007 + 0.0555555555556 w_007 >= 1
_C17: d_008 - 0.0123456790123 w_008 >= -1
_C18: d_008 + 0.0123456790123 w_008 >= 1
_C19: d_009 - 0.125 w_009 >= -1
_C2: d_000 + 0.0181818181818 w_000 >= 1
_C20: d_009 + 0.125 w_009 >= 1
_C21: d_010 - 0.0416666666667 w_010 >= -1
_C22: d_010 + 0.0416666666667 w_010 >= 1
_C23: d_011 - 0.0172413793103 w_011 >= -1
_C24: d_011 + 0.0172413793103 w_011 >= 1
_C25: 0.00274010138375 w_000 + 0.00274010138375 w_001 + 0.00274010138375 w_002
 + 0.00260309631456 w_003 + 0.00287710645294 w_004 + 0.00287710645294 w_005
 + 0.00287710645294 w_006 + 0.00274010138375 w_007 + 0.00274010138375 w_008
 + 0.00287710645294 w_009 + 0.00274010138375 w_010 + 0.00274010138375 w_011
 - worst_relative_error <= 1
_C26: - 0.00274010138375 w_000 - 0.00274010138375 w_001
 - 0.00274010138375 w_002 - 0.00260309631456 w_003 - 0.00287710645294 w_004
 - 0.00287710645294 w_005 - 0.00287710645294 w_006 - 0.00274010138375 w_007
 - 0.00274010138375 w_008 - 0.00287710645294 w_009 - 0.00274010138375 w_010
 - 0.00274010138375 w_011 - worst_relative_error <= -1
_C27: 0.00109979693956 w_000 + 0.00144859690688 w_001 + 0.0104733030487 w_002
 + 0.0108391941133 w_003 + 0.0107274446312 w_004 + 0.0157173371181 w_005
 + 0.00465383499446 w_006 + 0.00535092927532 w_007 + 0.000504541327032 w_008
 + 0.00500324174629 w_009 + 0.00385763257559 w_010 + 0.000449425066612 w_011
 - worst_relative_error <= 1
_C28: - 0.00109979693956 w_000 - 0.00144859690688 w_001
 - 0.0104733030487 w_002 - 0.0108391941133 w_003 - 0.0107274446312 w_004
 - 0.0157173371181 w_005 - 0.00465383499446 w_006 - 0.00535092927532 w_007
 - 0.000504541327032 w_008 - 0.00500324174629 w_009 - 0.00385763257559 w_010
 - 0.000449425066612 w_011 - worst_relative_error <= -1
_C29: 0.0011510887276 w_000 + 0.00342788722658 w_001 + 0.00421384486249 w_002
 + 0.000706018861403 w_003 + 0.00107509998519 w_004 + 0.00127931664445 w_005
 + 0.00198410112082 w_006 + 0.0038741421024 w_007 + 0.00234942971412 w_008
 + 0.00300207376685 w_009 + 0.000885004690663 w_010 + 0.00460583617242 w_011
 - worst_relative_error <= 1
_C3: d_001 - 0.0153846153846 w_001 >= -1
_C30: - 0.0011510887276 w_000 - 0.00342788722658 w_001
 - 0.00421384486249 w_002 - 0.000706018861403 w_003 - 0.00107509998519 w_004
 - 0.00127931664445 w_005 - 0.00198410112082 w_006 - 0.0038741421024 w_007
 - 0.00234942971412 w_008 - 0.00300207376685 w_009 - 0.000885004690663 w_010
 - 0.00460583617242 w_011 - worst_relative_error <= -1
_C31: w_003 >= 19.9999956667
_C32: w_003 <= 19.9999976667
_C33: w_006 >= 10.5
_C34: w_006 <= 10.500001
_C35: w_005 >= 3.00729343354
_C36: w_005 <= 3.00729543354
_C37: w_007 >= 35.9999815508
_C38: w_007 <= 35.9999835508
_C39: w_004 >= 5.5
_C4: d_001 + 0.0153846153846 w_001 >= 1
_C40: w_004 <= 5.50000102659
_C41: w_002 >= 10.4543809774
_C42: w_002 <= 10.4543829774
_C43: w_009 >= 4
_C44: w_009 <= 4.00000113866
_C45: w_001 >= 64.9999987821
_C46: w_001 <= 65.0000007821
_C47: w_011 >= 58.8656995205
_C48: w_011 <= 58.8657015205
_C49: w_000 >= 46.6726365455
_C5: d_002 - 0.125 w_002 >= -1
_C50: w_000 <= 46.6726385455
_C51: w_010 >= 23.9999988887
_C52: w_010 <= 24.0000008887
_C6: d_002 + 0.125 w_002 >= 1
_C7: d_003 - 0.1 w_003 >= -1
_C8: d_003 + 0.1 w_003 >= 1
_C9: d_004 - 0.0909090909091 w_004 >= -1
primary_optimum_band: worst_relative_error <= 0.000549020276699
secondary_optimum_band: d_000 + d_001 + d_002 + d_003 + d_004 + d_005 + d_006
 + d_007 + d_008 + d_009 + d_010 + d_011 <= 4.47191309939
total_days: w_000 + w_001 + w_002 + w_003 + w_004 + w_005 + w_006 + w_007
 + w_008 + w_009 + w_010 + w_011 = 365
Bounds
 27.5 <= w_000 <= 110
 32.5 <= w_001 <= 130
 4 <= w_002 <= 16
 5 <= w_003 <= 20
 5.5 <= w_004 <= 22
 3 <= w_005 <= 12
 10.5 <= w_006 <= 42
 9 <= w_007 <= 36
 40.5 <= w_008 <= 162
 4 <= w_009 <= 16
 12 <= w_010 <= 48
 29 <= w_011 <= 116
End
