*SENSE:Minimize
NAME          MODEL
ROWS
 N  OBJ
 L  C0000000
 L  C0000001
 L  C0000002
 L  C0000003
 L  C0000004
 L  C0000005
 L  C0000006
 L  C0000007
 E  C0000008
 G  C0000009
 G  C0000010
 G  C0000011
 G  C0000012
 G  C0000013
 G  C0000014
 G  C0000015
 G  C0000016
 G  C0000017
 G  C0000018
 G  C0000019
 G  C0000020
 G  C0000021
 G  C0000022
 G  C0000023
 G  C0000024
 G  C0000025
 G  C0000026
 G  C0000027
 G  C0000028
 G  C0000029
 G  C0000030
 G  C0000031
 G  C0000032
 G  C0000033
 G  C0000034
 G  C0000035
 G  C0000036
 G  C0000037
 G  C0000038
 G  C0000039
 G  C0000040
 G  C0000041
 G  C0000042
 G  C0000043
 G  C0000044
 G  C0000045
 G  C0000046
 G  C0000047
 G  C0000048
 G  C0000049
 G  C0000050
 G  C0000051
 G  C0000052
 G  C0000053
 G  C0000054
 G  C0000055
 G  C0000056
 G  C0000057
 G  C0000058
 G  C0000059
 G  C0000060
 G  C0000061
 G  C0000062
 G  C0000063
 G  C0000064
 G  C0000065
 G  C0000066
 G  C0000067
 G  C0000068
 G  C0000069
 G  C0000070
 G  C0000071
 G  C0000072
 G  C0000073
 G  C0000074
 G  C0000075
 G  C0000076
 G  C0000077
 G  C0000078
 G  C0000079
 G  C0000080
 G  C0000081
 G  C0000082
 G  C0000083
 G  C0000084
 G  C0000085
 G  C0000086
 G  C0000087
 G  C0000088
 G  C0000089
 G  C0000090
 G  C0000091
 G  C0000092
 G  C0000093
 G  C0000094
 G  C0000095
 G  C0000096
 G  C0000097
 G  C0000098
 G  C0000099
 G  C0000100
 G  C0000101
 G  C0000102
 G  C0000103
 G  C0000104
COLUMNS
    X0000000  C0000009   1.000000000000e+00
    X0000000  C0000010   1.000000000000e+00
    X0000001  C0000011   1.000000000000e+00
    X0000001  C0000012   1.000000000000e+00
    X0000002  C0000013   1.000000000000e+00
    X0000002  C0000014   1.000000000000e+00
    X0000003  C0000015   1.000000000000e+00
    X0000003  C0000016   1.000000000000e+00
    X0000004  C0000017   1.000000000000e+00
    X0000004  C0000018   1.000000000000e+00
    X0000005  C0000019   1.000000000000e+00
    X0000005  C0000020   1.000000000000e+00
    X0000006  C0000021   1.000000000000e+00
    X0000006  C0000022   1.000000000000e+00
    X0000007  C0000023   1.000000000000e+00
    X0000007  C0000024   1.000000000000e+00
    X0000008  C0000025   1.000000000000e+00
    X0000008  C0000026   1.000000000000e+00
    X0000009  C0000027   1.000000000000e+00
    X0000009  C0000028   1.000000000000e+00
    X0000010  C0000029   1.000000000000e+00
    X0000010  C0000030   1.000000000000e+00
    X0000011  C0000031   1.000000000000e+00
    X0000011  C0000032   1.000000000000e+00
    X0000012  C0000033   1.000000000000e+00
    X0000012  C0000034   1.000000000000e+00
    X0000013  C0000035   1.000000000000e+00
    X0000013  C0000036   1.000000000000e+00
    X0000014  C0000037   1.000000000000e+00
    X0000014  C0000038   1.000000000000e+00
    X0000015  C0000039   1.000000000000e+00
    X0000015  C0000040   1.000000000000e+00
    X0000016  C0000041   1.000000000000e+00
    X0000016  C0000042   1.000000000000e+00
    X0000017  C0000043   1.000000000000e+00
    X0000017  C0000044   1.000000000000e+00
    X0000018  C0000045   1.000000000000e+00
    X0000018  C0000046   1.000000000000e+00
    X0000019  C0000047   1.000000000000e+00
    X0000019  C0000048   1.000000000000e+00
    X0000020  C0000049   1.000000000000e+00
    X0000020  C0000050   1.000000000000e+00
    X0000021  C0000051   1.000000000000e+00
    X0000021  C0000052   1.000000000000e+00
    X0000022  C0000053   1.000000000000e+00
    X0000022  C0000054   1.000000000000e+00
    X0000023  C0000055   1.000000000000e+00
    X0000023  C0000056   1.000000000000e+00
    X0000024  C0000057   1.000000000000e+00
    X0000024  C0000058   1.000000000000e+00
    X0000025  C0000059   1.000000000000e+00
    X0000025  C0000060   1.000000000000e+00
    X0000026  C0000061   1.000000000000e+00
    X0000026  C0000062   1.000000000000e+00
    X0000027  C0000063   1.000000000000e+00
    X0000027  C0000064   1.000000000000e+00
    X0000028  C0000065   1.000000000000e+00
    X0000028  C0000066   1.000000000000e+00
    X0000029  C0000067   1.000000000000e+00
    X0000029  C0000068   1.000000000000e+00
    X0000030  C0000069   1.000000000000e+00
    X0000030  C0000070   1.000000000000e+00
    X0000031  C0000071   1.000000000000e+00
    X0000031  C0000072   1.000000000000e+00
    X0000032  C0000073   1.000000000000e+00
    X0000032  C0000074   1.000000000000e+00
    X0000033  C0000075   1.000000000000e+00
    X0000033  C0000076   1.000000000000e+00
    X0000034  C0000077   1.000000000000e+00
    X0000034  C0000078   1.000000000000e+00
    X0000035  C0000079   1.000000000000e+00
    X0000035  C0000080   1.000000000000e+00
    X0000036  C0000081   1.000000000000e+00
    X0000036  C0000082   1.000000000000e+00
    X0000037  C0000083   1.000000000000e+00
    X0000037  C0000084   1.000000000000e+00
    X0000038  C0000085   1.000000000000e+00
    X0000038  C0000086   1.000000000000e+00
    X0000039  C0000087   1.000000000000e+00
    X0000039  C0000088   1.000000000000e+00
    X0000040  C0000089   1.000000000000e+00
    X0000040  C0000090   1.000000000000e+00
    X0000041  C0000091   1.000000000000e+00
    X0000041  C0000092   1.000000000000e+00
    X0000042  C0000093   1.000000000000e+00
    X0000042  C0000094   1.000000000000e+00
    X0000043  C0000095   1.000000000000e+00
    X0000043  C0000096   1.000000000000e+00
    X0000044  C0000097   1.000000000000e+00
    X0000044  C0000098   1.000000000000e+00
    X0000045  C0000099   1.000000000000e+00
    X0000045  C0000100   1.000000000000e+00
    X0000046  C0000101   1.000000000000e+00
    X0000046  C0000102   1.000000000000e+00
    X0000047  C0000103   1.000000000000e+00
    X0000047  C0000104   1.000000000000e+00
    X0000048  C0000000   2.877106452939e-03
    X0000048  C0000001  -2.877106452939e-03
    X0000048  C0000002   3.999316760632e-03
    X0000048  C0000003  -3.999316760632e-03
    X0000048  C0000004   2.935170098257e-03
    X0000048  C0000005  -2.935170098257e-03
    X0000048  C0000006   3.578226149293e-03
    X0000048  C0000007  -3.578226149293e-03
    X0000048  C0000008   1.000000000000e+00
    X0000048  C0000009  -1.666666666667e-01
    X0000048  C0000010   1.666666666667e-01
    X0000049  C0000000   2.603096314564e-03
    X0000049  C0000001  -2.603096314564e-03
    X0000049  C0000002   1.516961295946e-05
    X0000049  C0000003  -1.516961295946e-05
    X0000049  C0000004   1.722806497803e-03
    X0000049  C0000005  -1.722806497803e-03
    X0000049  C0000006   2.801920778861e-03
    X0000049  C0000007  -2.801920778861e-03
    X0000049  C0000008   1.000000000000e+00
    X0000049  C0000011  -5.263157894737e-02
    X0000049  C0000012   5.263157894737e-02
    X0000050  C0000000   2.740101383751e-03
    X0000050  C0000001  -2.740101383751e-03
    X0000050  C0000002   1.332397671606e-03
    X0000050  C0000003  -1.332397671606e-03
    X0000050  C0000004   4.574433417272e-03
    X0000050  C0000005  -4.574433417272e-03
    X0000050  C0000006   2.436452851184e-03
    X0000050  C0000007  -2.436452851184e-03
    X0000050  C0000008   1.000000000000e+00
    X0000050  C0000013  -1.428571428571e-01
    X0000050  C0000014   1.428571428571e-01
    X0000051  C0000000   2.877106452939e-03
    X0000051  C0000001  -2.877106452939e-03
    X0000051  C0000002   1.220547058718e-02
    X0000051  C0000003  -1.220547058718e-02
    X0000051  C0000004   1.440774206290e-03
    X0000051  C0000005  -1.440774206290e-03
    X0000051  C0000006   1.018851739960e-04
    X0000051  C0000007  -1.018851739960e-04
    X0000051  C0000008   1.000000000000e+00
    X0000051  C0000015  -2.500000000000e-01
    X0000051  C0000016   2.500000000000e-01
    X0000052  C0000000   2.877106452939e-03
    X0000052  C0000001  -2.877106452939e-03
    X0000052  C0000002   1.125726864646e-02
    X0000052  C0000003  -1.125726864646e-02
    X0000052  C0000004   4.842739347257e-04
    X0000052  C0000005  -4.842739347257e-04
    X0000052  C0000006   1.495938094003e-03
    X0000052  C0000007  -1.495938094003e-03
    X0000052  C0000008   1.000000000000e+00
    X0000052  C0000017  -2.500000000000e-01
    X0000052  C0000018   2.500000000000e-01
    X0000053  C0000000   2.877106452939e-03
    X0000053  C0000001  -2.877106452939e-03
    X0000053  C0000002   1.283359369446e-02
    X0000053  C0000003  -1.283359369446e-02
    X0000053  C0000004   2.804177158939e-03
    X0000053  C0000005  -2.804177158939e-03
    X0000053  C0000006   1.699394466112e-03
    X0000053  C0000007  -1.699394466112e-03
    X0000053  C0000008   1.000000000000e+00
    X0000053  C0000019  -3.333333333333e-01
    X0000053  C0000020   3.333333333333e-01
    X0000054  C0000000   2.877106452939e-03
    X0000054  C0000001  -2.877106452939e-03
    X0000054  C0000002   1.326997289392e-02
    X0000054  C0000003  -1.326997289392e-02
    X0000054  C0000004   2.084333185207e-03
    X0000054  C0000005  -2.084333185207e-03
    X0000054  C0000006   4.957679190746e-04
    X0000054  C0000007  -4.957679190746e-04
    X0000054  C0000008   1.000000000000e+00
    X0000054  C0000021  -1.000000000000e+00
    X0000054  C0000022   1.000000000000e+00
    X0000055  C0000000   2.877106452939e-03
    X0000055  C0000001  -2.877106452939e-03
    X0000055  C0000002   2.478815888329e-03
    X0000055  C0000003  -2.478815888329e-03
    X0000055  C0000004   1.129412926480e-03
    X0000055  C0000005  -1.129412926480e-03
    X0000055  C0000006   4.029566480939e-03
    X0000055  C0000007  -4.029566480939e-03
    X0000055  C0000008   1.000000000000e+00
    X0000055  C0000023  -3.333333333333e-01
    X0000055  C0000024   3.333333333333e-01
    X0000056  C0000000   2.877106452939e-03
    X0000056  C0000001  -2.877106452939e-03
    X0000056  C0000002   6.849484774209e-03
    X0000056  C0000003  -6.849484774209e-03
    X0000056  C0000004   2.343455290574e-03
    X0000056  C0000005  -2.343455290574e-03
    X0000056  C0000006   4.097385271643e-04
    X0000056  C0000007  -4.097385271643e-04
    X0000056  C0000008   1.000000000000e+00
    X0000056  C0000025  -5.000000000000e-01
    X0000056  C0000026   5.000000000000e-01
    X0000057  C0000000   2.740101383751e-03
    X0000057  C0000001  -2.740101383751e-03
    X0000057  C0000002   8.450687987457e-03
    X0000057  C0000003  -8.450687987457e-03
    X0000057  C0000004   1.304251222041e-03
    X0000057  C0000005  -1.304251222041e-03
    X0000057  C0000006   8.741088579504e-04
    X0000057  C0000007  -8.741088579504e-04
    X0000057  C0000008   1.000000000000e+00
    X0000057  C0000027  -3.333333333333e-01
    X0000057  C0000028   3.333333333333e-01
    X0000058  C0000000   2.603096314564e-03
    X0000058  C0000001  -2.603096314564e-03
    X0000058  C0000002   1.236424586949e-03
    X0000058  C0000003  -1.236424586949e-03
    X0000058  C0000004   2.932503826594e-03
    X0000058  C0000005  -2.932503826594e-03
    X0000058  C0000006   2.222321299056e-03
    X0000058  C0000007  -2.222321299056e-03
    X0000058  C0000008   1.000000000000e+00
    X0000058  C0000029  -6.666666666667e-02
    X0000058  C0000030   6.666666666667e-02
    X0000059  C0000000   2.603096314564e-03
    X0000059  C0000001  -2.603096314564e-03
    X0000059  C0000002   3.925996964662e-03
    X0000059  C0000003  -3.925996964662e-03
    X0000059  C0000004   9.445514244803e-04
    X0000059  C0000005  -9.445514244803e-04
    X0000059  C0000006   1.403943160318e-03
    X0000059  C0000007  -1.403943160318e-03
    X0000059  C0000008   1.000000000000e+00
    X0000059  C0000031  -2.500000000000e-01
    X0000059  C0000032   2.500000000000e-01
    X0000060  C0000000   2.740101383751e-03
    X0000060  C0000001  -2.740101383751e-03
    X0000060  C0000002   2.373821940499e-02
    X0000060  C0000003  -2.373821940499e-02
    X0000060  C0000004   4.145064928653e-04
    X0000060  C0000005  -4.145064928653e-04
    X0000060  C0000008   1.000000000000e+00
    X0000060  C0000033  -1.000000000000e+00
    X0000060  C0000034   1.000000000000e+00
    X0000061  C0000000   2.740101383751e-03
    X0000061  C0000001  -2.740101383751e-03
    X0000061  C0000002   2.989930714310e-03
    X0000061  C0000003  -2.989930714310e-03
    X0000061  C0000004   1.906779242581e-03
    X0000061  C0000005  -1.906779242581e-03
    X0000061  C0000006   1.670665672828e-03
    X0000061  C0000007  -1.670665672828e-03
    X0000061  C0000008   1.000000000000e+00
    X0000061  C0000035  -1.250000000000e-01
    X0000061  C0000036   1.250000000000e-01
    X0000062  C0000000   2.740101383751e-03
    X0000062  C0000001  -2.740101383751e-03
    X0000062  C0000002   1.032312388042e-02
    X0000062  C0000003  -1.032312388042e-02
    X0000062  C0000004   4.939613884363e-03
    X0000062  C0000005  -4.939613884363e-03
    X0000062  C0000006   1.294836541016e-03
    X0000062  C0000007  -1.294836541016e-03
    X0000062  C0000008   1.000000000000e+00
    X0000062  C0000037  -2.500000000000e-01
    X0000062  C0000038   2.500000000000e-01
    X0000063  C0000000   2.877106452939e-03
    X0000063  C0000001  -2.877106452939e-03
    X0000063  C0000002   8.274518215621e-04
    X0000063  C0000003  -8.274518215621e-04
    X0000063  C0000004   5.349133461709e-03
    X0000063  C0000005  -5.349133461709e-03
    X0000063  C0000006   4.098327199291e-03
    X0000063  C0000007  -4.098327199291e-03
    X0000063  C0000008   1.000000000000e+00
    X0000063  C0000039  -4.166666666667e-02
    X0000063  C0000040   4.166666666667e-02
    X0000064  C0000000   2.740101383751e-03
    X0000064  C0000001  -2.740101383751e-03
    X0000064  C0000002   3.887466147745e-04
    X0000064  C0000003  -3.887466147745e-04
    X0000064  C0000004   1.578136572360e-03
    X0000064  C0000005  -1.578136572360e-03
    X0000064  C0000006   3.449967001135e-03
    X0000064  C0000007  -3.449967001135e-03
    X0000064  C0000008   1.000000000000e+00
    X0000064  C0000041  -5.555555555556e-02
    X0000064  C0000042   5.555555555556e-02
    X0000065  C0000000   2.740101383751e-03
    X0000065  C0000001  -2.740101383751e-03
    X0000065  C0000002   4.407480479995e-03
    X0000065  C0000003  -4.407480479995e-03
    X0000065  C0000004   6.951562731447e-04
    X0000065  C0000005  -6.951562731447e-04
    X0000065  C0000006   1.146482936353e-03
    X0000065  C0000007  -1.146482936353e-03
    X0000065  C0000008   1.000000000000e+00
    X0000065  C0000043  -2.000000000000e-01
    X0000065  C0000044   2.000000000000e-01
    X0000066  C0000000   2.740101383751e-03
    X0000066  C0000001  -2.740101383751e-03
    X0000066  C0000002   8.530379020870e-04
    X0000066  C0000003  -8.530379020870e-04
    X0000066  C0000004   3.109169011998e-03
    X0000066  C0000005  -3.109169011998e-03
    X0000066  C0000006   3.128455697061e-03
    X0000066  C0000007  -3.128455697061e-03
    X0000066  C0000008   1.000000000000e+00
    X0000066  C0000045  -6.250000000000e-02
    X0000066  C0000046   6.250000000000e-02
    X0000067  C0000000   2.603096314564e-03
    X0000067  C0000001  -2.603096314564e-03
    X0000067  C0000002   3.694609801653e-03
    X0000067  C0000003  -3.694609801653e-03
    X0000067  C0000004   4.561497062164e-03
    X0000067  C0000005  -4.561497062164e-03
    X0000067  C0000006   1.565169776179e-03
    X0000067  C0000007  -1.565169776179e-03
    X0000067  C0000008   1.000000000000e+00
    X0000067  C0000047  -1.111111111111e-01
    X0000067  C0000048   1.111111111111e-01
    X0000068  C0000000   2.603096314564e-03
    X0000068  C0000001  -2.603096314564e-03
    X0000068  C0000002   1.083919411330e-02
    X0000068  C0000003  -1.083919411330e-02
    X0000068  C0000004   7.060188614032e-04
    X0000068  C0000005  -7.060188614032e-04
    X0000068  C0000008   1.000000000000e+00
    X0000068  C0000049  -5.000000000000e-01
    X0000068  C0000050   5.000000000000e-01
    X0000069  C0000000   2.877106452939e-03
    X0000069  C0000001  -2.877106452939e-03
    X0000069  C0000002   1.192705762400e-02
    X0000069  C0000003  -1.192705762400e-02
    X0000069  C0000004   1.165851972547e-03
    X0000069  C0000005  -1.165851972547e-03
    X0000069  C0000006   2.157014315416e-04
    X0000069  C0000007  -2.157014315416e-04
    X0000069  C0000008   1.000000000000e+00
    X0000069  C0000051  -1.000000000000e+00
    X0000069  C0000052   1.000000000000e+00
    X0000070  C0000000   2.740101383751e-03
    X0000070  C0000001  -2.740101383751e-03
    X0000070  C0000002   9.089632085309e-03
    X0000070  C0000003  -9.089632085309e-03
    X0000070  C0000004   3.916061818002e-03
    X0000070  C0000005  -3.916061818002e-03
    X0000070  C0000008   1.000000000000e+00
    X0000070  C0000053  -5.000000000000e-01
    X0000070  C0000054   5.000000000000e-01
    X0000071  C0000000   2.740101383751e-03
    X0000071  C0000001  -2.740101383751e-03
    X0000071  C0000002   3.857632575591e-03
    X0000071  C0000003  -3.857632575591e-03
    X0000071  C0000004   8.850046906631e-04
    X0000071  C0000005  -8.850046906631e-04
    X0000071  C0000006   2.061722634961e-03
    X0000071  C0000007  -2.061722634961e-03
    X0000071  C0000008   1.000000000000e+00
    X0000071  C0000055  -1.666666666667e-01
    X0000071  C0000056   1.666666666667e-01
    X0000072  C0000000   2.740101383751e-03
    X0000072  C0000001  -2.740101383751e-03
    X0000072  C0000002   3.147189035323e-04
    X0000072  C0000003  -3.147189035323e-04
    X0000072  C0000004   2.774354416630e-03
    X0000072  C0000005  -2.774354416630e-03
    X0000072  C0000006   3.733173247497e-03
    X0000072  C0000007  -3.733173247497e-03
    X0000072  C0000008   1.000000000000e+00
    X0000072  C0000057  -4.347826086957e-02
    X0000072  C0000058   4.347826086957e-02
    X0000073  C0000000   2.877106452939e-03
    X0000073  C0000001  -2.877106452939e-03
    X0000073  C0000002   1.571733711805e-02
    X0000073  C0000003  -1.571733711805e-02
    X0000073  C0000004   1.279316644448e-03
    X0000073  C0000005  -1.279316644448e-03
    X0000073  C0000008   1.000000000000e+00
    X0000073  C0000059  -1.000000000000e+00
    X0000073  C0000060   1.000000000000e+00
    X0000074  C0000000   2.603096314564e-03
    X0000074  C0000001  -2.603096314564e-03
    X0000074  C0000002   7.317821291644e-04
    X0000074  C0000003  -7.317821291644e-04
    X0000074  C0000004   4.891077865008e-03
    X0000074  C0000005  -4.891077865008e-03
    X0000074  C0000006   1.860778069915e-03
    X0000074  C0000007  -1.860778069915e-03
    X0000074  C0000008   1.000000000000e+00
    X0000074  C0000061  -1.000000000000e-01
    X0000074  C0000062   1.000000000000e-01
    X0000075  C0000000   2.603096314564e-03
    X0000075  C0000001  -2.603096314564e-03
    X0000075  C0000002   1.481130670136e-02
    X0000075  C0000003  -1.481130670136e-02
    X0000075  C0000004   4.085616945638e-03
    X0000075  C0000005  -4.085616945638e-03
    X0000075  C0000008   1.000000000000e+00
    X0000075  C0000063  -1.000000000000e+00
    X0000075  C0000064   1.000000000000e+00
    X0000076  C0000000   2.740101383751e-03
    X0000076  C0000001  -2.740101383751e-03
    X0000076  C0000002   2.541516955228e-03
    X0000076  C0000003  -2.541516955228e-03
    X0000076  C0000004   3.710808275317e-03
    X0000076  C0000005  -3.710808275317e-03
    X0000076  C0000006   2.664556330099e-03
    X0000076  C0000007  -2.664556330099e-03
    X0000076  C0000008   1.000000000000e+00
    X0000076  C0000065  -7.142857142857e-02
    X0000076  C0000066   7.142857142857e-02
    X0000077  C0000000   2.603096314564e-03
    X0000077  C0000001  -2.603096314564e-03
    X0000077  C0000002   5.583125484353e-03
    X0000077  C0000003  -5.583125484353e-03
    X0000077  C0000004   2.532316200069e-03
    X0000077  C0000005  -2.532316200069e-03
    X0000077  C0000006   1.497978937242e-03
    X0000077  C0000007  -1.497978937242e-03
    X0000077  C0000008   1.000000000000e+00
    X0000077  C0000067  -2.500000000000e-01
    X0000077  C0000068   2.500000000000e-01
    X0000078  C0000000   2.877106452939e-03
    X0000078  C0000001  -2.877106452939e-03
    X0000078  C0000002   1.072744463117e-02
    X0000078  C0000003  -1.072744463117e-02
    X0000078  C0000004   1.075099985187e-03
    X0000078  C0000005  -1.075099985187e-03
    X0000078  C0000006   1.004722825230e-05
    X0000078  C0000007  -1.004722825230e-05
    X0000078  C0000008   1.000000000000e+00
    X0000078  C0000069  -3.333333333333e-01
    X0000078  C0000070   3.333333333333e-01
    X0000079  C0000000   2.877106452939e-03
    X0000079  C0000001  -2.877106452939e-03
    X0000079  C0000002   2.090979450332e-03
    X0000079  C0000003  -2.090979450332e-03
    X0000079  C0000004   2.079395645090e-03
    X0000079  C0000005  -2.079395645090e-03
    X0000079  C0000006   5.255328327720e-03
    X0000079  C0000007  -5.255328327720e-03
    X0000079  C0000008   1.000000000000e+00
    X0000079  C0000071  -7.692307692308e-02
    X0000079  C0000072   7.692307692308e-02
    X0000080  C0000000   2.877106452939e-03
    X0000080  C0000001  -2.877106452939e-03
    X0000080  C0000002   1.914900696174e-02
    X0000080  C0000003  -1.914900696174e-02
    X0000080  C0000004   1.880857156964e-03
    X0000080  C0000005  -1.880857156964e-03
    X0000080  C0000006   2.045552876992e-04
    X0000080  C0000007  -2.045552876992e-04
    X0000080  C0000008   1.000000000000e+00
    X0000080  C0000073  -1.000000000000e+00
    X0000080  C0000074   1.000000000000e+00
    X0000081  C0000000   2.603096314564e-03
    X0000081  C0000001  -2.603096314564e-03
    X0000081  C0000002   5.021141889582e-04
    X0000081  C0000003  -5.021141889582e-04
    X0000081  C0000004   3.953389621291e-03
    X0000081  C0000005  -3.953389621291e-03
    X0000081  C0000006   2.397990805530e-03
    X0000081  C0000007  -2.397990805530e-03
    X0000081  C0000008   1.000000000000e+00
    X0000081  C0000075  -4.347826086957e-02
    X0000081  C0000076   4.347826086957e-02
    X0000082  C0000000   2.877106452939e-03
    X0000082  C0000001  -2.877106452939e-03
    X0000082  C0000002   5.709943448694e-03
    X0000082  C0000003  -5.709943448694e-03
    X0000082  C0000004   2.212363600454e-03
    X0000082  C0000005  -2.212363600454e-03
    X0000082  C0000006   3.464095915865e-03
    X0000082  C0000007  -3.464095915865e-03
    X0000082  C0000008   1.000000000000e+00
    X0000082  C0000077  -2.500000000000e-01
    X0000082  C0000078   2.500000000000e-01
    X0000083  C0000000   2.603096314564e-03
    X0000083  C0000001  -2.603096314564e-03
    X0000083  C0000002   7.836217531845e-03
    X0000083  C0000003  -7.836217531845e-03
    X0000083  C0000004   1.030069619316e-03
    X0000083  C0000005  -1.030069619316e-03
    X0000083  C0000008   1.000000000000e+00
    X0000083  C0000079  -2.500000000000e-01
    X0000083  C0000080   2.500000000000e-01
    X0000084  C0000000   2.603096314564e-03
    X0000084  C0000001  -2.603096314564e-03
    X0000084  C0000002   4.766899176381e-03
    X0000084  C0000003  -4.766899176381e-03
    X0000084  C0000004   5.007603811781e-03
    X0000084  C0000005  -5.007603811781e-03
    X0000084  C0000006   6.036186348454e-04
    X0000084  C0000007  -6.036186348454e-04
    X0000084  C0000008   1.000000000000e+00
    X0000084  C0000081  -1.666666666667e-01
    X0000084  C0000082   1.666666666667e-01
    X0000085  C0000000   2.740101383751e-03
    X0000085  C0000001  -2.740101383751e-03
    X0000085  C0000002   1.499627484871e-02
    X0000085  C0000003  -1.499627484871e-02
    X0000085  C0000004   3.140621142547e-03
    X0000085  C0000005  -3.140621142547e-03
    X0000085  C0000008   1.000000000000e+00
    X0000085  C0000083  -1.000000000000e+00
    X0000085  C0000084   1.000000000000e+00
    X0000086  C0000000   2.877106452939e-03
    X0000086  C0000001  -2.877106452939e-03
    X0000086  C0000002   1.433730686175e-03
    X0000086  C0000003  -1.433730686175e-03
    X0000086  C0000004   8.248654520318e-04
    X0000086  C0000005  -8.248654520318e-04
    X0000086  C0000006   4.780753780741e-03
    X0000086  C0000007  -4.780753780741e-03
    X0000086  C0000008   1.000000000000e+00
    X0000086  C0000085  -5.000000000000e-02
    X0000086  C0000086   5.000000000000e-02
    X0000087  C0000000   2.877106452939e-03
    X0000087  C0000001  -2.877106452939e-03
    X0000087  C0000002   8.418932930995e-03
    X0000087  C0000003  -8.418932930995e-03
    X0000087  C0000004   3.198686614329e-03
    X0000087  C0000005  -3.198686614329e-03
    X0000087  C0000006   1.213830763231e-03
    X0000087  C0000007  -1.213830763231e-03
    X0000087  C0000008   1.000000000000e+00
    X0000087  C0000087  -2.500000000000e-01
    X0000087  C0000088   2.500000000000e-01
    X0000088  C0000000   2.740101383751e-03
    X0000088  C0000001  -2.740101383751e-03
    X0000088  C0000002   1.415223758365e-03
    X0000088  C0000003  -1.415223758365e-03
    X0000088  C0000004   2.171628894485e-03
    X0000088  C0000005  -2.171628894485e-03
    X0000088  C0000006   2.732689096685e-03
    X0000088  C0000007  -2.732689096685e-03
    X0000088  C0000008   1.000000000000e+00
    X0000088  C0000089  -5.263157894737e-02
    X0000088  C0000090   5.263157894737e-02
    X0000089  C0000000   2.740101383751e-03
    X0000089  C0000001  -2.740101383751e-03
    X0000089  C0000002   7.996408644697e-04
    X0000089  C0000003  -7.996408644697e-04
    X0000089  C0000004   2.367352984743e-03
    X0000089  C0000005  -2.367352984743e-03
    X0000089  C0000006   2.951059323231e-03
    X0000089  C0000007  -2.951059323231e-03
    X0000089  C0000008   1.000000000000e+00
    X0000089  C0000091  -1.111111111111e-01
    X0000089  C0000092   1.111111111111e-01
    X0000090  C0000000   2.603096314564e-03
    X0000090  C0000001  -2.603096314564e-03
    X0000090  C0000002   2.057909694080e-03
    X0000090  C0000003  -2.057909694080e-03
    X0000090  C0000004   6.724435886042e-04
    X0000090  C0000005  -6.724435886042e-04
    X0000090  C0000006   1.718233019085e-03
    X0000090  C0000007  -1.718233019085e-03
    X0000090  C0000008   1.000000000000e+00
    X0000090  C0000093  -1.250000000000e-01
    X0000090  C0000094   1.250000000000e-01
    X0000091  C0000000   2.877106452939e-03
    X0000091  C0000001  -2.877106452939e-03
    X0000091  C0000002   8.018657410371e-03
    X0000091  C0000003  -8.018657410371e-03
    X0000091  C0000004   3.119044092233e-04
    X0000091  C0000005  -3.119044092233e-04
    X0000091  C0000006   2.611023442067e-03
    X0000091  C0000007  -2.611023442067e-03
    X0000091  C0000008   1.000000000000e+00
    X0000091  C0000095  -5.000000000000e-01
    X0000091  C0000096   5.000000000000e-01
    X0000092  C0000000   2.877106452939e-03
    X0000092  C0000001  -2.877106452939e-03
    X0000092  C0000002   8.625441928750e-04
    X0000092  C0000003  -8.625441928750e-04
    X0000092  C0000004   3.603614279366e-03
    X0000092  C0000005  -3.603614279366e-03
    X0000092  C0000006   4.411204166586e-03
    X0000092  C0000007  -4.411204166586e-03
    X0000092  C0000008   1.000000000000e+00
    X0000092  C0000097  -5.263157894737e-02
    X0000092  C0000098   5.263157894737e-02
    X0000093  C0000000   2.740101383751e-03
    X0000093  C0000001  -2.740101383751e-03
    X0000093  C0000002   4.361567118104e-03
    X0000093  C0000003  -4.361567118104e-03
    X0000093  C0000004   2.490643361477e-03
    X0000093  C0000005  -2.490643361477e-03
    X0000093  C0000006   1.613679050085e-03
    X0000093  C0000007  -1.613679050085e-03
    X0000093  C0000008   1.000000000000e+00
    X0000093  C0000099  -3.333333333333e-01
    X0000093  C0000100   3.333333333333e-01
    X0000094  C0000000   2.603096314564e-03
    X0000094  C0000001  -2.603096314564e-03
    X0000094  C0000002   7.657721752689e-03
    X0000094  C0000003  -7.657721752689e-03
    X0000094  C0000004   2.123043499728e-03
    X0000094  C0000005  -2.123043499728e-03
    X0000094  C0000006   1.466895324836e-03
    X0000094  C0000007  -1.466895324836e-03
    X0000094  C0000008   1.000000000000e+00
    X0000094  C0000101  -1.000000000000e+00
    X0000094  C0000102   1.000000000000e+00
    X0000095  C0000000   2.740101383751e-03
    X0000095  C0000001  -2.740101383751e-03
    X0000095  C0000002   4.060399735482e-03
    X0000095  C0000003  -4.060399735482e-03
    X0000095  C0000004   4.202982274231e-03
    X0000095  C0000005  -4.202982274231e-03
    X0000095  C0000006   8.299952464051e-04
    X0000095  C0000007  -8.299952464051e-04
    X0000095  C0000008   1.000000000000e+00
    X0000095  C0000103  -2.000000000000e-01
    X0000095  C0000104   2.000000000000e-01
    X0000096  C0000000  -1.000000000000e+00
    X0000096  C0000001  -1.000000000000e+00
    X0000096  C0000002  -1.000000000000e+00
    X0000096  C0000003  -1.000000000000e+00
    X0000096  C0000004  -1.000000000000e+00
    X0000096  C0000005  -1.000000000000e+00
    X0000096  C0000006  -1.000000000000e+00
    X0000096  C0000007  -1.000000000000e+00
    X0000096  OBJ        1.000000000000e+00
RHS
    RHS       C0000000   1.000000000000e+00
    RHS       C0000001  -1.000000000000e+00
    RHS       C0000002   1.000000000000e+00
    RHS       C0000003  -1.000000000000e+00
    RHS       C0000004   1.000000000000e+00
    RHS       C0000005  -1.000000000000e+00
    RHS       C0000006   1.000000000000e+00
    RHS       C0000007  -1.000000000000e+00
    RHS       C0000008   3.650000000000e+02
    RHS       C0000009  -1.000000000000e+00
    RHS       C0000010   1.000000000000e+00
    RHS       C0000011  -1.000000000000e+00
    RHS       C0000012   1.000000000000e+00
    RHS       C0000013  -1.000000000000e+00
    RHS       C0000014   1.000000000000e+00
    RHS       C0000015  -1.000000000000e+00
    RHS       C0000016   1.000000000000e+00
    RHS       C0000017  -1.000000000000e+00
    RHS       C0000018   1.000000000000e+00
    RHS       C0000019  -1.000000000000e+00
    RHS       C0000020   1.000000000000e+00
    RHS       C0000021  -1.000000000000e+00
    RHS       C0000022   1.000000000000e+00
    RHS       C0000023  -1.000000000000e+00
    RHS       C0000024   1.000000000000e+00
    RHS       C0000025  -1.000000000000e+00
    RHS       C0000026   1.000000000000e+00
    RHS       C0000027  -1.000000000000e+00
    RHS       C0000028   1.000000000000e+00
    RHS       C0000029  -1.000000000000e+00
    RHS       C0000030   1.000000000000e+00
    RHS       C0000031  -1.000000000000e+00
    RHS       C0000032   1.000000000000e+00
    RHS       C0000033  -1.000000000000e+00
    RHS       C0000034   1.000000000000e+00
    RHS       C0000035  -1.000000000000e+00
    RHS       C0000036   1.000000000000e+00
    RHS       C0000037  -1.000000000000e+00
    RHS       C0000038   1.000000000000e+00
    RHS       C0000039  -1.000000000000e+00
    RHS       C0000040   1.000000000000e+00
    RHS       C0000041  -1.000000000000e+00
    RHS       C0000042   1.000000000000e+00
    RHS       C0000043  -1.000000000000e+00
    RHS       C0000044   1.000000000000e+00
    RHS       C0000045  -1.000000000000e+00
    RHS       C0000046   1.000000000000e+00
    RHS       C0000047  -1.000000000000e+00
    RHS       C0000048   1.000000000000e+00
    RHS       C0000049  -1.000000000000e+00
    RHS       C0000050   1.000000000000e+00
    RHS       C0000051  -1.000000000000e+00
    RHS       C0000052   1.000000000000e+00
    RHS       C0000053  -1.000000000000e+00
    RHS       C0000054   1.000000000000e+00
    RHS       C0000055  -1.000000000000e+00
    RHS       C0000056   1.000000000000e+00
    RHS       C0000057  -1.000000000000e+00
    RHS       C0000058   1.000000000000e+00
    RHS       C0000059  -1.000000000000e+00
    RHS       C0000060   1.000000000000e+00
    RHS       C0000061  -1.000000000000e+00
    RHS       C0000062   1.000000000000e+00
    RHS       C0000063  -1.000000000000e+00
    RHS       C0000064   1.000000000000e+00
    RHS       C0000065  -1.000000000000e+00
    RHS       C0000066   1.000000000000e+00
    RHS       C0000067  -1.000000000000e+00
    RHS       C0000068   1.000000000000e+00
    RHS       C0000069  -1.000000000000e+00
    RHS       C0000070   1.000000000000e+00
    RHS       C0000071  -1.000000000000e+00
    RHS       C0000072   1.000000000000e+00
    RHS       C0000073  -1.000000000000e+00
    RHS       C0000074   1.000000000000e+00
    RHS       C0000075  -1.000000000000e+00
    RHS       C0000076   1.000000000000e+00
    RHS       C0000077  -1.000000000000e+00
    RHS       C0000078   1.000000000000e+00
    RHS       C0000079  -1.000000000000e+00
    RHS       C0000080   1.000000000000e+00
    RHS       C0000081  -1.000000000000e+00
    RHS       C0000082   1.000000000000e+00
    RHS       C0000083  -1.000000000000e+00
    RHS       C0000084   1.000000000000e+00
    RHS       C0000085  -1.000000000000e+00
    RHS       C0000086   1.000000000000e+00
    RHS       C0000087  -1.000000000000e+00
    RHS       C0000088   1.000000000000e+00
    RHS       C0000089  -1.000000000000e+00
    RHS       C0000090   1.000000000000e+00
    RHS       C0000091  -1.000000000000e+00
    RHS       C0000092   1.000000000000e+00
    RHS       C0000093  -1.000000000000e+00
    RHS       C0000094   1.000000000000e+00
    RHS       C0000095  -1.000000000000e+00
    RHS       C0000096   1.000000000000e+00
    RHS       C0000097  -1.000000000000e+00
    RHS       C0000098   1.000000000000e+00
    RHS       C0000099  -1.000000000000e+00
    RHS       C0000100   1.000000000000e+00
    RHS       C0000101  -1.000000000000e+00
    RHS       C0000102   1.000000000000e+00
    RHS       C0000103  -1.000000000000e+00
    RHS       C0000104   1.000000000000e+00
BOUNDS
 LO BND       X0000048   3.000000000000e+00
 UP BND       X0000048   1.200000000000e+01
 LO BND       X0000049   9.500000000000e+00
 UP BND       X0000049   3.800000000000e+01
 LO BND       X0000050   3.500000000000e+00
 UP BND       X0000050   1.400000000000e+01
 LO BND       X0000051   2.000000000000e+00
 UP BND       X0000051   8.000000000000e+00
 LO BND       X0000052   2.000000000000e+00
 UP BND       X0000052   8.000000000000e+00
 LO BND       X0000053   1.500000000000e+00
 UP BND       X0000053   6.000000000000e+00
 LO BND       X0000054   5.000000000000e-01
 UP BND       X0000054   2.000000000000e+00
 LO BND       X0000055   1.500000000000e+00
 UP BND       X0000055   6.000000000000e+00
 LO BND       X0000056   1.000000000000e+00
 UP BND       X0000056   4.000000000000e+00
 LO BND       X0000057   1.500000000000e+00
 UP BND       X0000057   6.000000000000e+00
 LO BND       X0000058   7.500000000000e+00
 UP BND       X0000058   3.000000000000e+01
 LO BND       X0000059   2.000000000000e+00
 UP BND       X0000059   8.000000000000e+00
 LO BND       X0000060   5.000000000000e-01
 UP BND       X0000060   2.000000000000e+00
 LO BND       X0000061   4.000000000000e+00
 UP BND       X0000061   1.600000000000e+01
 LO BND       X0000062   2.000000000000e+00
 UP BND       X0000062   8.000000000000e+00
 LO BND       X0000063   1.200000000000e+01
 UP BND       X0000063   4.800000000000e+01
 LO BND       X0000064   9.000000000000e+00
 UP BND       X0000064   3.600000000000e+01
 LO BND       X0000065   2.500000000000e+00
 UP BND       X0000065   1.000000000000e+01
 LO BND       X0000066   8.000000000000e+00
 UP BND       X0000066   3.200000000000e+01
 LO BND       X0000067   4.500000000000e+00
 UP BND       X0000067   1.800000000000e+01
 LO BND       X0000068   1.000000000000e+00
 UP BND       X0000068   4.000000000000e+00
 LO BND       X0000069   5.000000000000e-01
 UP BND       X0000069   2.000000000000e+00
 LO BND       X0000070   1.000000000000e+00
 UP BND       X0000070   4.000000000000e+00
 LO BND       X0000071   3.000000000000e+00
 UP BND       X0000071   1.200000000000e+01
 LO BND       X0000072   1.150000000000e+01
 UP BND       X0000072   4.600000000000e+01
 LO BND       X0000073   5.000000000000e-01
 UP BND       X0000073   2.000000000000e+00
 LO BND       X0000074   5.000000000000e+00
 UP BND       X0000074   2.000000000000e+01
 LO BND       X0000075   5.000000000000e-01
 UP BND       X0000075   2.000000000000e+00
 LO BND       X0000076   7.000000000000e+00
 UP BND       X0000076   2.800000000000e+01
 LO BND       X0000077   2.000000000000e+00
 UP BND       X0000077   8.000000000000e+00
 LO BND       X0000078   1.500000000000e+00
 UP BND       X0000078   6.000000000000e+00
 LO BND       X0000079   6.500000000000e+00
 UP BND       X0000079   2.600000000000e+01
 LO BND       X0000080   5.000000000000e-01
 UP BND       X0000080   2.000000000000e+00
 LO BND       X0000081   1.150000000000e+01
 UP BND       X0000081   4.600000000000e+01
 LO BND       X0000082   2.000000000000e+00
 UP BND       X0000082   8.000000000000e+00
 LO BND       X0000083   2.000000000000e+00
 UP BND       X0000083   8.000000000000e+00
 LO BND       X0000084   3.000000000000e+00
 UP BND       X0000084   1.200000000000e+01
 LO BND       X0000085   5.000000000000e-01
 UP BND       X0000085   2.000000000000e+00
 LO BND       X0000086   1.000000000000e+01
 UP BND       X0000086   4.000000000000e+01
 LO BND       X0000087   2.000000000000e+00
 UP BND       X0000087   8.000000000000e+00
 LO BND       X0000088   9.500000000000e+00
 UP BND       X0000088   3.800000000000e+01
 LO BND       X0000089   4.500000000000e+00
 UP BND       X0000089   1.800000000000e+01
 LO BND       X0000090   4.000000000000e+00
 UP BND       X0000090   1.600000000000e+01
 LO BND       X0000091   1.000000000000e+00
 UP BND       X0000091   4.000000000000e+00
 LO BND       X0000092   9.500000000000e+00
 UP BND       X0000092   3.800000000000e+01
 LO BND       X0000093   1.500000000000e+00
 UP BND       X0000093   6.000000000000e+00
 LO BND       X0000094   5.000000000000e-01
 UP BND       X0000094   2.000000000000e+00
 LO BND       X0000095   2.500000000000e+00
 UP BND       X0000095   1.000000000000e+01
ENDATA
