*SENSE:Minimize
NAME          MODEL
ROWS
 N  OBJ
 E  C0000000
 L  C0000001
 L  C0000002
 L  C0000003
 L  C0000004
 L  C0000005
 L  C0000006
 L  C0000007
 L  C0000008
COLUMNS
    X0000000  C0000000   1.000000000000e+00
    X0000000  C0000001   2.877106452939e-03
    X0000000  C0000002  -2.877106452939e-03
    X0000000  C0000003   3.999316760632e-03
    X0000000  C0000004  -3.999316760632e-03
    X0000000  C0000005   2.935170098257e-03
    X0000000  C0000006  -2.935170098257e-03
    X0000000  C0000007   3.578226149293e-03
    X0000000  C0000008  -3.578226149293e-03
    X0000001  C0000000   1.000000000000e+00
    X0000001  C0000001   2.603096314564e-03
    X0000001  C0000002  -2.603096314564e-03
    X0000001  C0000003   1.516961295946e-05
    X0000001  C0000004  -1.516961295946e-05
    X0000001  C0000005   1.722806497803e-03
    X0000001  C0000006  -1.722806497803e-03
    X0000001  C0000007   2.801920778861e-03
    X0000001  C0000008  -2.801920778861e-03
    X0000002  C0000000   1.000000000000e+00
    X0000002  C0000001   2.740101383751e-03
    X0000002  C0000002  -2.740101383751e-03
    X0000002  C0000003   1.332397671606e-03
    X0000002  C0000004  -1.332397671606e-03
    X0000002  C0000005   4.574433417272e-03
    X0000002  C0000006  -4.574433417272e-03
    X0000002  C0000007   2.436452851184e-03
    X0000002  C0000008  -2.436452851184e-03
    X0000003  C0000000   1.000000000000e+00
    X0000003  C0000001   2.877106452939e-03
    X0000003  C0000002  -2.877106452939e-03
    X0000003  C0000003   1.220547058718e-02
    X0000003  C0000004  -1.220547058718e-02
    X0000003  C0000005   1.440774206290e-03
    X0000003  C0000006  -1.440774206290e-03
    X0000003  C0000007   1.018851739960e-04
    X0000003  C0000008  -1.018851739960e-04
    X0000004  C0000000   1.000000000000e+00
    X0000004  C0000001   2.877106452939e-03
    X0000004  C0000002  -2.877106452939e-03
    X0000004  C0000003   1.125726864646e-02
    X0000004  C0000004  -1.125726864646e-02
    X0000004  C0000005   4.842739347257e-04
    X0000004  C0000006  -4.842739347257e-04
    X0000004  C0000007   1.495938094003e-03
    X0000004  C0000008  -1.495938094003e-03
    X0000005  C0000000   1.000000000000e+00
    X0000005  C0000001   2.877106452939e-03
    X0000005  C0000002  -2.877106452939e-03
    X0000005  C0000003   1.283359369446e-02
    X0000005  C0000004  -1.283359369446e-02
    X0000005  C0000005   2.804177158939e-03
    X0000005  C0000006  -2.804177158939e-03
    X0000005  C0000007   1.699394466112e-03
    X0000005  C0000008  -1.699394466112e-03
    X0000006  C0000000   1.000000000000e+00
    X0000006  C0000001   2.877106452939e-03
    X0000006  C0000002  -2.877106452939e-03
    X0000006  C0000003   1.326997289392e-02
    X0000006  C0000004  -1.326997289392e-02
    X0000006  C0000005   2.084333185207e-03
    X0000006  C0000006  -2.084333185207e-03
    X0000006  C0000007   4.957679190746e-04
    X0000006  C0000008  -4.957679190746e-04
    X0000007  C0000000   1.000000000000e+00
    X0000007  C0000001   2.877106452939e-03
    X0000007  C0000002  -2.877106452939e-03
    X0000007  C0000003   2.478815888329e-03
    X0000007  C0000004  -2.478815888329e-03
    X0000007  C0000005   1.129412926480e-03
    X0000007  C0000006  -1.129412926480e-03
    X0000007  C0000007   4.029566480939e-03
    X0000007  C0000008  -4.029566480939e-03
    X0000008  C0000000   1.000000000000e+00
    X0000008  C0000001   2.877106452939e-03
    X0000008  C0000002  -2.877106452939e-03
    X0000008  C0000003   6.849484774209e-03
    X0000008  C0000004  -6.849484774209e-03
    X0000008  C0000005   2.343455290574e-03
    X0000008  C0000006  -2.343455290574e-03
    X0000008  C0000007   4.097385271643e-04
    X0000008  C0000008  -4.097385271643e-04
    X0000009  C0000000   1.000000000000e+00
    X0000009  C0000001   2.740101383751e-03
    X0000009  C0000002  -2.740101383751e-03
    X0000009  C0000003   8.450687987457e-03
    X0000009  C0000004  -8.450687987457e-03
    X0000009  C0000005   1.304251222041e-03
    X0000009  C0000006  -1.304251222041e-03
    X0000009  C0000007   8.741088579504e-04
    X0000009  C0000008  -8.741088579504e-04
    X0000010  C0000000   1.000000000000e+00
    X0000010  C0000001   2.603096314564e-03
    X0000010  C0000002  -2.603096314564e-03
    X0000010  C0000003   1.236424586949e-03
    X0000010  C0000004  -1.236424586949e-03
    X0000010  C0000005   2.932503826594e-03
    X0000010  C0000006  -2.932503826594e-03
    X0000010  C0000007   2.222321299056e-03
    X0000010  C0000008  -2.222321299056e-03
    X0000011  C0000000   1.000000000000e+00
    X0000011  C0000001   2.603096314564e-03
    X0000011  C0000002  -2.603096314564e-03
    X0000011  C0000003   3.925996964662e-03
    X0000011  C0000004  -3.925996964662e-03
    X0000011  C0000005   9.445514244803e-04
    X0000011  C0000006  -9.445514244803e-04
    X0000011  C0000007   1.403943160318e-03
    X0000011  C0000008  -1.403943160318e-03
    X0000012  C0000000   1.000000000000e+00
    X0000012  C0000001   2.740101383751e-03
    X0000012  C0000002  -2.740101383751e-03
    X0000012  C0000003   2.373821940499e-02
    X0000012  C0000004  -2.373821940499e-02
    X0000012  C0000005   4.145064928653e-04
    X0000012  C0000006  -4.145064928653e-04
    X0000013  C0000000   1.000000000000e+00
    X0000013  C0000001   2.740101383751e-03
    X0000013  C0000002  -2.740101383751e-03
    X0000013  C0000003   2.989930714310e-03
    X0000013  C0000004  -2.989930714310e-03
    X0000013  C0000005   1.906779242581e-03
    X0000013  C0000006  -1.906779242581e-03
    X0000013  C0000007   1.670665672828e-03
    X0000013  C0000008  -1.670665672828e-03
    X0000014  C0000000   1.000000000000e+00
    X0000014  C0000001   2.740101383751e-03
    X0000014  C0000002  -2.740101383751e-03
    X0000014  C0000003   1.032312388042e-02
    X0000014  C0000004  -1.032312388042e-02
    X0000014  C0000005   4.939613884363e-03
    X0000014  C0000006  -4.939613884363e-03
    X0000014  C0000007   1.294836541016e-03
    X0000014  C0000008  -1.294836541016e-03
    X0000015  C0000000   1.000000000000e+00
    X0000015  C0000001   2.877106452939e-03
    X0000015  C0000002  -2.877106452939e-03
    X0000015  C0000003   8.274518215621e-04
    X0000015  C0000004  -8.274518215621e-04
    X0000015  C0000005   5.349133461709e-03
    X0000015  C0000006  -5.349133461709e-03
    X0000015  C0000007   4.098327199291e-03
    X0000015  C0000008  -4.098327199291e-03
    X0000016  C0000000   1.000000000000e+00
    X0000016  C0000001   2.740101383751e-03
    X0000016  C0000002  -2.740101383751e-03
    X0000016  C0000003   3.887466147745e-04
    X0000016  C0000004  -3.887466147745e-04
    X0000016  C0000005   1.578136572360e-03
    X0000016  C0000006  -1.578136572360e-03
    X0000016  C0000007   3.449967001135e-03
    X0000016  C0000008  -3.449967001135e-03
    X0000017  C0000000   1.000000000000e+00
    X0000017  C0000001   2.740101383751e-03
    X0000017  C0000002  -2.740101383751e-03
    X0000017  C0000003   4.407480479995e-03
    X0000017  C0000004  -4.407480479995e-03
    X0000017  C0000005   6.951562731447e-04
    X0000017  C0000006  -6.951562731447e-04
    X0000017  C0000007   1.146482936353e-03
    X0000017  C0000008  -1.146482936353e-03
    X0000018  C0000000   1.000000000000e+00
    X0000018  C0000001   2.740101383751e-03
    X0000018  C0000002  -2.740101383751e-03
    X0000018  C0000003   8.530379020870e-04
    X0000018  C0000004  -8.530379020870e-04
    X0000018  C0000005   3.109169011998e-03
    X0000018  C0000006  -3.109169011998e-03
    X0000018  C0000007   3.128455697061e-03
    X0000018  C0000008  -3.128455697061e-03
    X0000019  C0000000   1.000000000000e+00
    X0000019  C0000001   2.603096314564e-03
    X0000019  C0000002  -2.603096314564e-03
    X0000019  C0000003   3.694609801653e-03
    X0000019  C0000004  -3.694609801653e-03
    X0000019  C0000005   4.561497062164e-03
    X0000019  C0000006  -4.561497062164e-03
    X0000019  C0000007   1.565169776179e-03
    X0000019  C0000008  -1.565169776179e-03
    X0000020  C0000000   1.000000000000e+00
    X0000020  C0000001   2.603096314564e-03
    X0000020  C0000002  -2.603096314564e-03
    X0000020  C0000003   1.083919411330e-02
    X0000020  C0000004  -1.083919411330e-02
    X0000020  C0000005   7.060188614032e-04
    X0000020  C0000006  -7.060188614032e-04
    X0000021  C0000000   1.000000000000e+00
    X0000021  C0000001   2.877106452939e-03
    X0000021  C0000002  -2.877106452939e-03
    X0000021  C0000003   1.192705762400e-02
    X0000021  C0000004  -1.192705762400e-02
    X0000021  C0000005   1.165851972547e-03
    X0000021  C0000006  -1.165851972547e-03
    X0000021  C0000007   2.157014315416e-04
    X0000021  C0000008  -2.157014315416e-04
    X0000022  C0000000   1.000000000000e+00
    X0000022  C0000001   2.740101383751e-03
    X0000022  C0000002  -2.740101383751e-03
    X0000022  C0000003   9.089632085309e-03
    X0000022  C0000004  -9.089632085309e-03
    X0000022  C0000005   3.916061818002e-03
    X0000022  C0000006  -3.916061818002e-03
    X0000023  C0000000   1.000000000000e+00
    X0000023  C0000001   2.740101383751e-03
    X0000023  C0000002  -2.740101383751e-03
    X0000023  C0000003   3.857632575591e-03
    X0000023  C0000004  -3.857632575591e-03
    X0000023  C0000005   8.850046906631e-04
    X0000023  C0000006  -8.850046906631e-04
    X0000023  C0000007   2.061722634961e-03
    X0000023  C0000008  -2.061722634961e-03
    X0000024  C0000000   1.000000000000e+00
    X0000024  C0000001   2.740101383751e-03
    X0000024  C0000002  -2.740101383751e-03
    X0000024  C0000003   3.147189035323e-04
    X0000024  C0000004  -3.147189035323e-04
    X0000024  C0000005   2.774354416630e-03
    X0000024  C0000006  -2.774354416630e-03
    X0000024  C0000007   3.733173247497e-03
    X0000024  C0000008  -3.733173247497e-03
    X0000025  C0000000   1.000000000000e+00
    X0000025  C0000001   2.877106452939e-03
    X0000025  C0000002  -2.877106452939e-03
    X0000025  C0000003   1.571733711805e-02
    X0000025  C0000004  -1.571733711805e-02
    X0000025  C0000005   1.279316644448e-03
    X0000025  C0000006  -1.279316644448e-03
    X0000026  C0000000   1.000000000000e+00
    X0000026  C0000001   2.603096314564e-03
    X0000026  C0000002  -2.603096314564e-03
    X0000026  C0000003   7.317821291644e-04
    X0000026  C0000004  -7.317821291644e-04
    X0000026  C0000005   4.891077865008e-03
    X0000026  C0000006  -4.891077865008e-03
    X0000026  C0000007   1.860778069915e-03
    X0000026  C0000008  -1.860778069915e-03
    X0000027  C0000000   1.000000000000e+00
    X0000027  C0000001   2.603096314564e-03
    X0000027  C0000002  -2.603096314564e-03
    X0000027  C0000003   1.481130670136e-02
    X0000027  C0000004  -1.481130670136e-02
    X0000027  C0000005   4.085616945638e-03
    X0000027  C0000006  -4.085616945638e-03
    X0000028  C0000000   1.000000000000e+00
    X0000028  C0000001   2.740101383751e-03
    X0000028  C0000002  -2.740101383751e-03
    X0000028  C0000003   2.541516955228e-03
    X0000028  C0000004  -2.541516955228e-03
    X0000028  C0000005   3.710808275317e-03
    X0000028  C0000006  -3.710808275317e-03
    X0000028  C0000007   2.664556330099e-03
    X0000028  C0000008  -2.664556330099e-03
    X0000029  C0000000   1.000000000000e+00
    X0000029  C0000001   2.603096314564e-03
    X0000029  C0000002  -2.603096314564e-03
    X0000029  C0000003   5.583125484353e-03
    X0000029  C0000004  -5.583125484353e-03
    X0000029  C0000005   2.532316200069e-03
    X0000029  C0000006  -2.532316200069e-03
    X0000029  C0000007   1.497978937242e-03
    X0000029  C0000008  -1.497978937242e-03
    X0000030  C0000000   1.000000000000e+00
    X0000030  C0000001   2.877106452939e-03
    X0000030  C0000002  -2.877106452939e-03
    X0000030  C0000003   1.072744463117e-02
    X0000030  C0000004  -1.072744463117e-02
    X0000030  C0000005   1.075099985187e-03
    X0000030  C0000006  -1.075099985187e-03
    X0000030  C0000007   1.004722825230e-05
    X0000030  C0000008  -1.004722825230e-05
    X0000031  C0000000   1.000000000000e+00
    X0000031  C0000001   2.877106452939e-03
    X0000031  C0000002  -2.877106452939e-03
    X0000031  C0000003   2.090979450332e-03
    X0000031  C0000004  -2.090979450332e-03
    X0000031  C0000005   2.079395645090e-03
    X0000031  C0000006  -2.079395645090e-03
    X0000031  C0000007   5.255328327720e-03
    X0000031  C0000008  -5.255328327720e-03
    X0000032  C0000000   1.000000000000e+00
    X0000032  C0000001   2.877106452939e-03
    X0000032  C0000002  -2.877106452939e-03
    X0000032  C0000003   1.914900696174e-02
    X0000032  C0000004  -1.914900696174e-02
    X0000032  C0000005   1.880857156964e-03
    X0000032  C0000006  -1.880857156964e-03
    X0000032  C0000007   2.045552876992e-04
    X0000032  C0000008  -2.045552876992e-04
    X0000033  C0000000   1.000000000000e+00
    X0000033  C0000001   2.603096314564e-03
    X0000033  C0000002  -2.603096314564e-03
    X0000033  C0000003   5.021141889582e-04
    X0000033  C0000004  -5.021141889582e-04
    X0000033  C0000005   3.953389621291e-03
    X0000033  C0000006  -3.953389621291e-03
    X0000033  C0000007   2.397990805530e-03
    X0000033  C0000008  -2.397990805530e-03
    X0000034  C0000000   1.000000000000e+00
    X0000034  C0000001   2.877106452939e-03
    X0000034  C0000002  -2.877106452939e-03
    X0000034  C0000003   5.709943448694e-03
    X0000034  C0000004  -5.709943448694e-03
    X0000034  C0000005   2.212363600454e-03
    X0000034  C0000006  -2.212363600454e-03
    X0000034  C0000007   3.464095915865e-03
    X0000034  C0000008  -3.464095915865e-03
    X0000035  C0000000   1.000000000000e+00
    X0000035  C0000001   2.603096314564e-03
    X0000035  C0000002  -2.603096314564e-03
    X0000035  C0000003   7.836217531845e-03
    X0000035  C0000004  -7.836217531845e-03
    X0000035  C0000005   1.030069619316e-03
    X0000035  C0000006  -1.030069619316e-03
    X0000036  C0000000   1.000000000000e+00
    X0000036  C0000001   2.603096314564e-03
    X0000036  C0000002  -2.603096314564e-03
    X0000036  C0000003   4.766899176381e-03
    X0000036  C0000004  -4.766899176381e-03
    X0000036  C0000005   5.007603811781e-03
    X0000036  C0000006  -5.007603811781e-03
    X0000036  C0000007   6.036186348454e-04
    X0000036  C0000008  -6.036186348454e-04
    X0000037  C0000000   1.000000000000e+00
    X0000037  C0000001   2.740101383751e-03
    X0000037  C0000002  -2.740101383751e-03
    X0000037  C0000003   1.499627484871e-02
    X0000037  C0000004  -1.499627484871e-02
    X0000037  C0000005   3.140621142547e-03
    X0000037  C0000006  -3.140621142547e-03
    X0000038  C0000000   1.000000000000e+00
    X0000038  C0000001   2.877106452939e-03
    X0000038  C0000002  -2.877106452939e-03
    X0000038  C0000003   1.433730686175e-03
    X0000038  C0000004  -1.433730686175e-03
    X0000038  C0000005   8.248654520318e-04
    X0000038  C0000006  -8.248654520318e-04
    X0000038  C0000007   4.780753780741e-03
    X0000038  C0000008  -4.780753780741e-03
    X0000039  C0000000   1.000000000000e+00
    X0000039  C0000001   2.877106452939e-03
    X0000039  C0000002  -2.877106452939e-03
    X0000039  C0000003   8.418932930995e-03
    X0000039  C0000004  -8.418932930995e-03
    X0000039  C0000005   3.198686614329e-03
    X0000039  C0000006  -3.198686614329e-03
    X0000039  C0000007   1.213830763231e-03
    X0000039  C0000008  -1.213830763231e-03
    X0000040  C0000000   1.000000000000e+00
    X0000040  C0000001   2.740101383751e-03
    X0000040  C0000002  -2.740101383751e-03
    X0000040  C0000003   1.415223758365e-03
    X0000040  C0000004  -1.415223758365e-03
    X0000040  C0000005   2.171628894485e-03
    X0000040  C0000006  -2.171628894485e-03
    X0000040  C0000007   2.732689096685e-03
    X0000040  C0000008  -2.732689096685e-03
    X0000041  C0000000   1.000000000000e+00
    X0000041  C0000001   2.740101383751e-03
    X0000041  C0000002  -2.740101383751e-03
    X0000041  C0000003   7.996408644697e-04
    X0000041  C0000004  -7.996408644697e-04
    X0000041  C0000005   2.367352984743e-03
    X0000041  C0000006  -2.367352984743e-03
    X0000041  C0000007   2.951059323231e-03
    X0000041  C0000008  -2.951059323231e-03
    X0000042  C0000000   1.000000000000e+00
    X0000042  C0000001   2.603096314564e-03
    X0000042  C0000002  -2.603096314564e-03
    X0000042  C0000003   2.057909694080e-03
    X0000042  C0000004  -2.057909694080e-03
    X0000042  C0000005   6.724435886042e-04
    X0000042  C0000006  -6.724435886042e-04
    X0000042  C0000007   1.718233019085e-03
    X0000042  C0000008  -1.718233019085e-03
    X0000043  C0000000   1.000000000000e+00
    X0000043  C0000001   2.877106452939e-03
    X0000043  C0000002  -2.877106452939e-03
    X0000043  C0000003   8.018657410371e-03
    X0000043  C0000004  -8.018657410371e-03
    X0000043  C0000005   3.119044092233e-04
    X0000043  C0000006  -3.119044092233e-04
    X0000043  C0000007   2.611023442067e-03
    X0000043  C0000008  -2.611023442067e-03
    X0000044  C0000000   1.000000000000e+00
    X0000044  C0000001   2.877106452939e-03
    X0000044  C0000002  -2.877106452939e-03
    X0000044  C0000003   8.625441928750e-04
    X0000044  C0000004  -8.625441928750e-04
    X0000044  C0000005   3.603614279366e-03
    X0000044  C0000006  -3.603614279366e-03
    X0000044  C0000007   4.411204166586e-03
    X0000044  C0000008  -4.411204166586e-03
    X0000045  C0000000   1.000000000000e+00
    X0000045  C0000001   2.740101383751e-03
    X0000045  C0000002  -2.740101383751e-03
    X0000045  C0000003   4.361567118104e-03
    X0000045  C0000004  -4.361567118104e-03
    X0000045  C0000005   2.490643361477e-03
    X0000045  C0000006  -2.490643361477e-03
    X0000045  C0000007   1.613679050085e-03
    X0000045  C0000008  -1.613679050085e-03
    X0000046  C0000000   1.000000000000e+00
    X0000046  C0000001   2.603096314564e-03
    X0000046  C0000002  -2.603096314564e-03
    X0000046  C0000003   7.657721752689e-03
    X0000046  C0000004  -7.657721752689e-03
    X0000046  C0000005   2.123043499728e-03
    X0000046  C0000006  -2.123043499728e-03
    X0000046  C0000007   1.466895324836e-03
    X0000046  C0000008  -1.466895324836e-03
    X0000047  C0000000   1.000000000000e+00
    X0000047  C0000001   2.740101383751e-03
    X0000047  C0000002  -2.740101383751e-03
    X0000047  C0000003   4.060399735482e-03
    X0000047  C0000004  -4.060399735482e-03
    X0000047  C0000005   4.202982274231e-03
    X0000047  C0000006  -4.202982274231e-03
    X0000047  C0000007   8.299952464051e-04
    X0000047  C0000008  -8.299952464051e-04
    X0000048  C0000001  -1.000000000000e+00
    X0000048  C0000002  -1.000000000000e+00
    X0000048  C0000003  -1.000000000000e+00
    X0000048  C0000004  -1.000000000000e+00
    X0000048  C0000005  -1.000000000000e+00
    X0000048  C0000006  -1.000000000000e+00
    X0000048  C0000007  -1.000000000000e+00
    X0000048  C0000008  -1.000000000000e+00
    X0000048  OBJ        1.000000000000e+00
RHS
    RHS       C0000000   3.650000000000e+02
    RHS       C0000001   1.000000000000e+00
    RHS       C0000002  -1.000000000000e+00
    RHS       C0000003   1.000000000000e+00
    RHS       C0000004  -1.000000000000e+00
    RHS       C0000005   1.000000000000e+00
    RHS       C0000006  -1.000000000000e+00
    RHS       C0000007   1.000000000000e+00
    RHS       C0000008  -1.000000000000e+00
BOUNDS
 LO BND       X0000000   3.000000000000e+00
 UP BND       X0000000   1.200000000000e+01
 LO BND       X0000001   9.500000000000e+00
 UP BND       X0000001   3.800000000000e+01
 LO BND       X0000002   3.500000000000e+00
 UP BND       X0000002   1.400000000000e+01
 LO BND       X0000003   2.000000000000e+00
 UP BND       X0000003   8.000000000000e+00
 LO BND       X0000004   2.000000000000e+00
 UP BND       X0000004   8.000000000000e+00
 LO BND       X0000005   1.500000000000e+00
 UP BND       X0000005   6.000000000000e+00
 LO BND       X0000006   5.000000000000e-01
 UP BND       X0000006   2.000000000000e+00
 LO BND       X0000007   1.500000000000e+00
 UP BND       X0000007   6.000000000000e+00
 LO BND       X0000008   1.000000000000e+00
 UP BND       X0000008   4.000000000000e+00
 LO BND       X0000009   1.500000000000e+00
 UP BND       X0000009   6.000000000000e+00
 LO BND       X0000010   7.500000000000e+00
 UP BND       X0000010   3.000000000000e+01
 LO BND       X0000011   2.000000000000e+00
 UP BND       X0000011   8.000000000000e+00
 LO BND       X0000012   5.000000000000e-01
 UP BND       X0000012   2.000000000000e+00
 LO BND       X0000013   4.000000000000e+00
 UP BND       X0000013   1.600000000000e+01
 LO BND       X0000014   2.000000000000e+00
 UP BND       X0000014   8.000000000000e+00
 LO BND       X0000015   1.200000000000e+01
 UP BND       X0000015   4.800000000000e+01
 LO BND       X0000016   9.000000000000e+00
 UP BND       X0000016   3.600000000000e+01
 LO BND       X0000017   2.500000000000e+00
 UP BND       X0000017   1.000000000000e+01
 LO BND       X0000018   8.000000000000e+00
 UP BND       X0000018   3.200000000000e+01
 LO BND       X0000019   4.500000000000e+00
 UP BND       X0000019   1.800000000000e+01
 LO BND       X0000020   1.000000000000e+00
 UP BND       X0000020   4.000000000000e+00
 LO BND       X0000021   5.000000000000e-01
 UP BND       X0000021   2.000000000000e+00
 LO BND       X0000022   1.000000000000e+00
 UP BND       X0000022   4.000000000000e+00
 LO BND       X0000023   3.000000000000e+00
 UP BND       X0000023   1.200000000000e+01
 LO BND       X0000024   1.150000000000e+01
 UP BND       X0000024   4.600000000000e+01
 LO BND       X0000025   5.000000000000e-01
 UP BND       X0000025   2.000000000000e+00
 LO BND       X0000026   5.000000000000e+00
 UP BND       X0000026   2.000000000000e+01
 LO BND       X0000027   5.000000000000e-01
 UP BND       X0000027   2.000000000000e+00
 LO BND       X0000028   7.000000000000e+00
 UP BND       X0000028   2.800000000000e+01
 LO BND       X0000029   2.000000000000e+00
 UP BND       X0000029   8.000000000000e+00
 LO BND       X0000030   1.500000000000e+00
 UP BND       X0000030   6.000000000000e+00
 LO BND       X0000031   6.500000000000e+00
 UP BND       X0000031   2.600000000000e+01
 LO BND       X0000032   5.000000000000e-01
 UP BND       X0000032   2.000000000000e+00
 LO BND       X0000033   1.150000000000e+01
 UP BND       X0000033   4.600000000000e+01
 LO BND       X0000034   2.000000000000e+00
 UP BND       X0000034   8.000000000000e+00
 LO BND       X0000035   2.000000000000e+00
 UP BND       X0000035   8.000000000000e+00
 LO BND       X0000036   3.000000000000e+00
 UP BND       X0000036   1.200000000000e+01
 LO BND       X0000037   5.000000000000e-01
 UP BND       X0000037   2.000000000000e+00
 LO BND       X0000038   1.000000000000e+01
 UP BND       X0000038   4.000000000000e+01
 LO BND       X0000039   2.000000000000e+00
 UP BND       X0000039   8.000000000000e+00
 LO BND       X0000040   9.500000000000e+00
 UP BND       X0000040   3.800000000000e+01
 LO BND       X0000041   4.500000000000e+00
 UP BND       X0000041   1.800000000000e+01
 LO BND       X0000042   4.000000000000e+00
 UP BND       X0000042   1.600000000000e+01
 LO BND       X0000043   1.000000000000e+00
 UP BND       X0000043   4.000000000000e+00
 LO BND       X0000044   9.500000000000e+00
 UP BND       X0000044   3.800000000000e+01
 LO BND       X0000045   1.500000000000e+00
 UP BND       X0000045   6.000000000000e+00
 LO BND       X0000046   5.000000000000e-01
 UP BND       X0000046   2.000000000000e+00
 LO BND       X0000047   2.500000000000e+00
 UP BND       X0000047   1.000000000000e+01
ENDATA
