\* U11R15_linf_primary *\
Minimize
OBJ: worst_relative_error
Subject To
channel_neg_0: - 0.00274010138375 w_000 - 0.00274010138375 w_001
 - 0.00287710645294 w_002 - 0.00274010138375 w_003 - 0.00287710645294 w_004
 - 0.00274010138375 w_005 - 0.00274010138375 w_006 - 0.00287710645294 w_007
 - 0.00287710645294 w_008 - 0.00274010138375 w_009 - 0.00260309631456 w_010
 - 0.00260309631456 w_011 - 0.00287710645294 w_012 - 0.00287710645294 w_013
 - 0.00274010138375 w_014 - 0.00274010138375 w_015 - 0.00274010138375 w_016
 - 0.00274010138375 w_017 - 0.00287710645294 w_018 - 0.00274010138375 w_019
 - 0.00274010138375 w_020 - 0.00287710645294 w_021 - 0.00260309631456 w_022
 - 0.00287710645294 w_023 - 0.00274010138375 w_024 - 0.00274010138375 w_025
 - 0.00260309631456 w_026 - 0.00274010138375 w_027 - 0.00260309631456 w_028
 - 0.00260309631456 w_029 - 0.00274010138375 w_030 - 0.00260309631456 w_031
 - 0.00260309631456 w_032 - 0.00260309631456 w_033 - 0.00287710645294 w_034
 - 0.00274010138375 w_035 - 0.00274010138375 w_036 - 0.00287710645294 w_037
 - 0.00260309631456 w_038 - 0.00260309631456 w_039 - 0.00260309631456 w_040
 - 0.00260309631456 w_041 - 0.00287710645294 w_042 - 0.00287710645294 w_043
 - 0.00274010138375 w_044 - 0.00287710645294 w_045 - 0.00260309631456 w_046
 - 0.00260309631456 w_047 - worst_relative_error <= -1
channel_neg_1: - 0.000462673195264 w_000 - 0.00574928331164 w_001
 - 0.00378957157878 w_002 - 0.00326804028523 w_003 - 0.0157173371181 w_004
 - 0.0101072097226 w_005 - 0.0104733030487 w_006 - 0.000987642934414 w_007
 - 0.00801865741037 w_008 - 0.0109740014071 w_009 - 0.00479733953305 w_010
 - 0.000678789614559 w_011 - 0.0132699728939 w_012 - 0.0122054705872 w_013
 - 0.00311351249455 w_014 - 0.00014825768399 w_015 - 0.000557028187871 w_016
 - 0.023738219405 w_017 - 0.0112572686465 w_018 - 0.00845068798746 w_019
 - 0.000772740084155 w_020 - 0.000648349257887 w_021 - 0.0131501329515 w_022
 - 0.0107274446312 w_023 - 0.00409377288399 w_024 - 0.0149962748487 w_025
 - 0.000211767796914 w_026 - 0.00874639430941 w_027 - 0.00392599696466 w_028
 - 0.00358012978919 w_029 - 0.0117398646001 w_030 - 0.00765772175269 w_031
 - 0.0157491933053 w_032 - 0.00476689917638 w_033 - 0.011927057624 w_034
 - 0.00908963208531 w_035 - 0.00281770504184 w_036 - 0.00570994344869 w_037
 - 0.00783621753185 w_038 - 0.000412613472497 w_039 - 0.00919834764485 w_040
 - 0.0148113067014 w_041 - 0.0191490069617 w_042 - 0.000827451821562 w_043
 - 0.000160899028123 w_044 - 0.00684948477421 w_045 - 0.0101644497289 w_046
 - 0.00572106783153 w_047 - worst_relative_error <= -1
channel_neg_2: - 0.0028108922135 w_000 - 0.00226865155779 w_001
 - 0.00464538586876 w_002 - 0.00044916802449 w_003 - 0.00127931664445 w_004
 - 0.00211025527082 w_005 - 0.00421384486249 w_006 - 0.00247281884165 w_007
 - 0.000311904409223 w_008 - 0.0024664494149 w_009 - 0.00352036735298 w_010
 - 0.00378768577495 w_011 - 0.00208433318521 w_012 - 0.00144077420629 w_013
 - 0.00207643312102 w_014 - 0.00373722411495 w_015 - 0.00131150940601 w_016
 - 0.000414506492865 w_017 - 0.000484273934726 w_018 - 0.00130425122204 w_019
 - 0.00357344590925 w_020 - 0.00153730311559 w_021 - 0.00108853009431 w_022
 - 0.00107509998519 w_023 - 0.00374996296845 w_024 - 0.00314062114255 w_025
 - 0.00268547869451 w_026 - 0.000370315508814 w_027 - 0.00094455142448 w_028
 - 0.000588011652595 w_029 - 0.00386481015158 w_030 - 0.00212304349973 w_031
 - 0.000329531427443 w_032 - 0.00500760381178 w_033 - 0.00116585197255 w_034
 - 0.003916061818 w_035 - 0.00163299264307 w_036 - 0.00221236360045 w_037
 - 0.00103006961932 w_038 - 0.00467165358219 w_039 - 0.00154105564608 w_040
 - 0.00408561694564 w_041 - 0.00188085715696 w_042 - 0.00534913346171 w_043
 - 0.000749469214437 w_044 - 0.00234345529057 w_045 - 0.00207791438305 w_046
 - 0.0033279020392 w_047 - worst_relative_error <= -1
channel_neg_3: - 0.00348403338443 w_000 - 0.00213440805185 w_001
 - 0.00212043612506 w_002 - 0.00198338565218 w_003 - 0.000701108146481 w_006
 - 0.00519127724761 w_007 - 0.00261102344207 w_008 - 0.00143675364008 w_009
 - 0.000658878390233 w_010 - 0.00256753778229 w_011 - 0.000495767919075 w_012
 - 0.000101885173996 w_013 - 0.00177710349713 w_014 - 0.00390774383838 w_015
 - 0.00377242023286 w_016 - 0.001495938094 w_018 - 0.00087410885795 w_019
 - 0.00336660640423 w_020 - 0.00514512279283 w_021 - 1.00472282523e-05 w_023
 - 0.00184193951694 w_024 - 0.00280898523623 w_026 - 0.000926071866568 w_027
 - 0.00140394316032 w_028 - 0.00048650563053 w_029 - 0.00233770743602 w_030
 - 0.00146689532484 w_031 - 0.000370020577979 w_032 - 0.000603618634845 w_033
 - 0.000215701431542 w_034 - 0.00254728633784 w_036 - 0.00346409591586 w_037
 - 0.00202404552901 w_039 - 0.000565156589192 w_040 - 0.000204555287699 w_042
 - 0.00409832719929 w_043 - 0.00436222392886 w_044 - 0.000409738527164 w_045
 - 0.000199845649456 w_046 - 0.000707230676197 w_047 - worst_relative_error
 <= -1
channel_pos_0: 0.00274010138375 w_000 + 0.00274010138375 w_001
 + 0.00287710645294 w_002 + 0.00274010138375 w_003 + 0.00287710645294 w_004
 + 0.00274010138375 w_005 + 0.00274010138375 w_006 + 0.00287710645294 w_007
 + 0.00287710645294 w_008 + 0.00274010138375 w_009 + 0.00260309631456 w_010
 + 0.00260309631456 w_011 + 0.00287710645294 w_012 + 0.00287710645294 w_013
 + 0.00274010138375 w_014 + 0.00274010138375 w_015 + 0.00274010138375 w_016
 + 0.00274010138375 w_017 + 0.00287710645294 w_018 + 0.00274010138375 w_019
 + 0.00274010138375 w_020 + 0.00287710645294 w_021 + 0.00260309631456 w_022
 + 0.00287710645294 w_023 + 0.00274010138375 w_024 + 0.00274010138375 w_025
 + 0.00260309631456 w_026 + 0.00274010138375 w_027 + 0.00260309631456 w_028
 + 0.00260309631456 w_029 + 0.00274010138375 w_030 + 0.00260309631456 w_031
 + 0.00260309631456 w_032 + 0.00260309631456 w_033 + 0.00287710645294 w_034
 + 0.00274010138375 w_035 + 0.00274010138375 w_036 + 0.00287710645294 w_037
 + 0.00260309631456 w_038 + 0.00260309631456 w_039 + 0.00260309631456 w_040
 + 0.00260309631456 w_041 + 0.00287710645294 w_042 + 0.00287710645294 w_043
 + 0.00274010138375 w_044 + 0.00287710645294 w_045 + 0.00260309631456 w_046
 + 0.00260309631456 w_047 - worst_relative_error <= 1
channel_pos_1: 0.000462673195264 w_000 + 0.00574928331164 w_001
 + 0.00378957157878 w_002 + 0.00326804028523 w_003 + 0.0157173371181 w_004
 + 0.0101072097226 w_005 + 0.0104733030487 w_006 + 0.000987642934414 w_007
 + 0.00801865741037 w_008 + 0.0109740014071 w_009 + 0.00479733953305 w_010
 + 0.000678789614559 w_011 + 0.0132699728939 w_012 + 0.0122054705872 w_013
 + 0.00311351249455 w_014 + 0.00014825768399 w_015 + 0.000557028187871 w_016
 + 0.023738219405 w_017 + 0.0112572686465 w_018 + 0.00845068798746 w_019
 + 0.000772740084155 w_020 + 0.000648349257887 w_021 + 0.0131501329515 w_022
 + 0.0107274446312 w_023 + 0.00409377288399 w_024 + 0.0149962748487 w_025
 + 0.000211767796914 w_026 + 0.00874639430941 w_027 + 0.00392599696466 w_028
 + 0.00358012978919 w_029 + 0.0117398646001 w_030 + 0.00765772175269 w_031
 + 0.0157491933053 w_032 + 0.00476689917638 w_033 + 0.011927057624 w_034
 + 0.00908963208531 w_035 + 0.00281770504184 w_036 + 0.00570994344869 w_037
 + 0.00783621753185 w_038 + 0.000412613472497 w_039 + 0.00919834764485 w_040
 + 0.0148113067014 w_041 + 0.0191490069617 w_042 + 0.000827451821562 w_043
 + 0.000160899028123 w_044 + 0.00684948477421 w_045 + 0.0101644497289 w_046
 + 0.00572106783153 w_047 - worst_relative_error <= 1
channel_pos_2: 0.0028108922135 w_000 + 0.00226865155779 w_001
 + 0.00464538586876 w_002 + 0.00044916802449 w_003 + 0.00127931664445 w_004
 + 0.00211025527082 w_005 + 0.00421384486249 w_006 + 0.00247281884165 w_007
 + 0.000311904409223 w_008 + 0.0024664494149 w_009 + 0.00352036735298 w_010
 + 0.00378768577495 w_011 + 0.00208433318521 w_012 + 0.00144077420629 w_013
 + 0.00207643312102 w_014 + 0.00373722411495 w_015 + 0.00131150940601 w_016
 + 0.000414506492865 w_017 + 0.000484273934726 w_018 + 0.00130425122204 w_019
 + 0.00357344590925 w_020 + 0.00153730311559 w_021 + 0.00108853009431 w_022
 + 0.00107509998519 w_023 + 0.00374996296845 w_024 + 0.00314062114255 w_025
 + 0.00268547869451 w_026 + 0.000370315508814 w_027 + 0.00094455142448 w_028
 + 0.000588011652595 w_029 + 0.00386481015158 w_030 + 0.00212304349973 w_031
 + 0.000329531427443 w_032 + 0.00500760381178 w_033 + 0.00116585197255 w_034
 + 0.003916061818 w_035 + 0.00163299264307 w_036 + 0.00221236360045 w_037
 + 0.00103006961932 w_038 + 0.00467165358219 w_039 + 0.00154105564608 w_040
 + 0.00408561694564 w_041 + 0.00188085715696 w_042 + 0.00534913346171 w_043
 + 0.000749469214437 w_044 + 0.00234345529057 w_045 + 0.00207791438305 w_046
 + 0.0033279020392 w_047 - worst_relative_error <= 1
channel_pos_3: 0.00348403338443 w_000 + 0.00213440805185 w_001
 + 0.00212043612506 w_002 + 0.00198338565218 w_003 + 0.000701108146481 w_006
 + 0.00519127724761 w_007 + 0.00261102344207 w_008 + 0.00143675364008 w_009
 + 0.000658878390233 w_010 + 0.00256753778229 w_011 + 0.000495767919075 w_012
 + 0.000101885173996 w_013 + 0.00177710349713 w_014 + 0.00390774383838 w_015
 + 0.00377242023286 w_016 + 0.001495938094 w_018 + 0.00087410885795 w_019
 + 0.00336660640423 w_020 + 0.00514512279283 w_021 + 1.00472282523e-05 w_023
 + 0.00184193951694 w_024 + 0.00280898523623 w_026 + 0.000926071866568 w_027
 + 0.00140394316032 w_028 + 0.00048650563053 w_029 + 0.00233770743602 w_030
 + 0.00146689532484 w_031 + 0.000370020577979 w_032 + 0.000603618634845 w_033
 + 0.000215701431542 w_034 + 0.00254728633784 w_036 + 0.00346409591586 w_037
 + 0.00202404552901 w_039 + 0.000565156589192 w_040 + 0.000204555287699 w_042
 + 0.00409832719929 w_043 + 0.00436222392886 w_044 + 0.000409738527164 w_045
 + 0.000199845649456 w_046 + 0.000707230676197 w_047 - worst_relative_error
 <= 1
dev_neg_0: 0.0526315789474 w_000 + worst_absolute_deviation >= 1
dev_neg_1: 0.2 w_001 + worst_absolute_deviation >= 1
dev_neg_10: 0.111111111111 w_010 + worst_absolute_deviation >= 1
dev_neg_11: 0.0333333333333 w_011 + worst_absolute_deviation >= 1
dev_neg_12: w_012 + worst_absolute_deviation >= 1
dev_neg_13: w_013 + worst_absolute_deviation >= 1
dev_neg_14: 0.0833333333333 w_014 + worst_absolute_deviation >= 1
dev_neg_15: 0.0625 w_015 + worst_absolute_deviation >= 1
dev_neg_16: 0.0454545454545 w_016 + worst_absolute_deviation >= 1
dev_neg_17: w_017 + worst_absolute_deviation >= 1
dev_neg_18: 0.333333333333 w_018 + worst_absolute_deviation >= 1
dev_neg_19: 0.5 w_019 + worst_absolute_deviation >= 1
dev_neg_2: 0.0769230769231 w_002 + worst_absolute_deviation >= 1
dev_neg_20: 0.05 w_020 + worst_absolute_deviation >= 1
dev_neg_21: 0.0833333333333 w_021 + worst_absolute_deviation >= 1
dev_neg_22: 0.333333333333 w_022 + worst_absolute_deviation >= 1
dev_neg_23: 0.333333333333 w_023 + worst_absolute_deviation >= 1
dev_neg_24: 0.166666666667 w_024 + worst_absolute_deviation >= 1
dev_neg_25: w_025 + worst_absolute_deviation >= 1
dev_neg_26: 0.0333333333333 w_026 + worst_absolute_deviation >= 1
dev_neg_27: w_027 + worst_absolute_deviation >= 1
dev_neg_28: 0.125 w_028 + worst_absolute_deviation >= 1
dev_neg_29: 0.5 w_029 + worst_absolute_deviation >= 1
dev_neg_3: 0.0769230769231 w_003 + worst_absolute_deviation >= 1
dev_neg_30: w_030 + worst_absolute_deviation >= 1
dev_neg_31: w_031 + worst_absolute_deviation >= 1
dev_neg_32: w_032 + worst_absolute_deviation >= 1
dev_neg_33: 0.25 w_033 + worst_absolute_deviation >= 1
dev_neg_34: w_034 + worst_absolute_deviation >= 1
dev_neg_35: 0.5 w_035 + worst_absolute_deviation >= 1
dev_neg_36: 0.0454545454545 w_036 + worst_absolute_deviation >= 1
dev_neg_37: 0.25 w_037 + worst_absolute_deviation >= 1
dev_neg_38: 0.5 w_038 + worst_absolute_deviation >= 1
dev_neg_39: 0.05 w_039 + worst_absolute_deviation >= 1
dev_neg_4: w_004 + worst_absolute_deviation >= 1
dev_neg_40: w_040 + worst_absolute_deviation >= 1
dev_neg_41: w_041 + worst_absolute_deviation >= 1
dev_neg_42: w_042 + worst_absolute_deviation >= 1
dev_neg_43: 0.047619047619 w_043 + worst_absolute_deviation >= 1
dev_neg_44: 0.0714285714286 w_044 + worst_absolute_deviation >= 1
dev_neg_45: w_045 + worst_absolute_deviation >= 1
dev_neg_46: w_046 + worst_absolute_deviation >= 1
dev_neg_47: 0.25 w_047 + worst_absolute_deviation >= 1
dev_neg_5: 0.5 w_005 + worst_absolute_deviation >= 1
dev_neg_6: 0.2 w_006 + worst_absolute_deviation >= 1
dev_neg_7: 0.0555555555556 w_007 + worst_absolute_deviation >= 1
dev_neg_8: 0.5 w_008 + worst_absolute_deviation >= 1
dev_neg_9: 0.5 w_009 + worst_absolute_deviation >= 1
dev_pos_0: - 0.0526315789474 w_000 + worst_absolute_deviation >= -1
dev_pos_1: - 0.2 w_001 + worst_absolute_deviation >= -1
dev_pos_10: - 0.111111111111 w_010 + worst_absolute_deviation >= -1
dev_pos_11: - 0.0333333333333 w_011 + worst_absolute_deviation >= -1
dev_pos_12: - w_012 + worst_absolute_deviation >= -1
dev_pos_13: - w_013 + worst_absolute_deviation >= -1
dev_pos_14: - 0.0833333333333 w_014 + worst_absolute_deviation >= -1
dev_pos_15: - 0.0625 w_015 + worst_absolute_deviation >= -1
dev_pos_16: - 0.0454545454545 w_016 + worst_absolute_deviation >= -1
dev_pos_17: - w_017 + worst_absolute_deviation >= -1
dev_pos_18: - 0.333333333333 w_018 + worst_absolute_deviation >= -1
dev_pos_19: - 0.5 w_019 + worst_absolute_deviation >= -1
dev_pos_2: - 0.0769230769231 w_002 + worst_absolute_deviation >= -1
dev_pos_20: - 0.05 w_020 + worst_absolute_deviation >= -1
dev_pos_21: - 0.0833333333333 w_021 + worst_absolute_deviation >= -1
dev_pos_22: - 0.333333333333 w_022 + worst_absolute_deviation >= -1
dev_pos_23: - 0.333333333333 w_023 + worst_absolute_deviation >= -1
dev_pos_24: - 0.166666666667 w_024 + worst_absolute_deviation >= -1
dev_pos_25: - w_025 + worst_absolute_deviation >= -1
dev_pos_26: - 0.0333333333333 w_026 + worst_absolute_deviation >= -1
dev_pos_27: - w_027 + worst_absolute_deviation >= -1
dev_pos_28: - 0.125 w_028 + worst_absolute_deviation >= -1
dev_pos_29: - 0.5 w_029 + worst_absolute_deviation >= -1
dev_pos_3: - 0.0769230769231 w_003 + worst_absolute_deviation >= -1
dev_pos_30: - w_030 + worst_absolute_deviation >= -1
dev_pos_31: - w_031 + worst_absolute_deviation >= -1
dev_pos_32: - w_032 + worst_absolute_deviation >= -1
dev_pos_33: - 0.25 w_033 + worst_absolute_deviation >= -1
dev_pos_34: - w_034 + worst_absolute_deviation >= -1
dev_pos_35: - 0.5 w_035 + worst_absolute_deviation >= -1
dev_pos_36: - 0.0454545454545 w_036 + worst_absolute_deviation >= -1
dev_pos_37: - 0.25 w_037 + worst_absolute_deviation >= -1
dev_pos_38: - 0.5 w_038 + worst_absolute_deviation >= -1
dev_pos_39: - 0.05 w_039 + worst_absolute_deviation >= -1
dev_pos_4: - w_004 + worst_absolute_deviation >= -1
dev_pos_40: - w_040 + worst_absolute_deviation >= -1
dev_pos_41: - w_041 + worst_absolute_deviation >= -1
dev_pos_42: - w_042 + worst_absolute_deviation >= -1
dev_pos_43: - 0.047619047619 w_043 + worst_absolute_deviation >= -1
dev_pos_44: - 0.0714285714286 w_044 + worst_absolute_deviation >= -1
dev_pos_45: - w_045 + worst_absolute_deviation >= -1
dev_pos_46: - w_046 + worst_absolute_deviation >= -1
dev_pos_47: - 0.25 w_047 + worst_absolute_deviation >= -1
dev_pos_5: - 0.5 w_005 + worst_absolute_deviation >= -1
dev_pos_6: - 0.2 w_006 + worst_absolute_deviation >= -1
dev_pos_7: - 0.0555555555556 w_007 + worst_absolute_deviation >= -1
dev_pos_8: - 0.5 w_008 + worst_absolute_deviation >= -1
dev_pos_9: - 0.5 w_009 + worst_absolute_deviation >= -1
total_days: w_000 + w_001 + w_002 + w_003 + w_004 + w_005 + w_006 + w_007
 + w_008 + w_009 + w_010 + w_011 + w_012 + w_013 + w_014 + w_015 + w_016
 + w_017 + w_018 + w_019 + w_020 + w_021 + w_022 + w_023 + w_024 + w_025
 + w_026 + w_027 + w_028 + w_029 + w_030 + w_031 + w_032 + w_033 + w_034
 + w_035 + w_036 + w_037 + w_038 + w_039 + w_040 + w_041 + w_042 + w_043
 + w_044 + w_045 + w_046 + w_047 = 365
Bounds
 9.5 <= w_000 <= 38
 2.5 <= w_001 <= 10
 6.5 <= w_002 <= 26
 6.5 <= w_003 <= 26
 0.5 <= w_004 <= 2
 1 <= w_005 <= 4
 2.5 <= w_006 <= 10
 9 <= w_007 <= 36
 1 <= w_008 <= 4
 1 <= w_009 <= 4
 4.5 <= w_010 <= 18
 15 <= w_011 <= 60
 0.5 <= w_012 <= 2
 0.5 <= w_013 <= 2
 6 <= w_014 <= 24
 8 <= w_015 <= 32
 11 <= w_016 <= 44
 0.5 <= w_017 <= 2
 1.5 <= w_018 <= 6
 1 <= w_019 <= 4
 10 <= w_020 <= 40
 6 <= w_021 <= 24
 1.5 <= w_022 <= 6
 1.5 <= w_023 <= 6
 3 <= w_024 <= 12
 0.5 <= w_025 <= 2
 15 <= w_026 <= 60
 0.5 <= w_027 <= 2
 4 <= w_028 <= 16
 1 <= w_029 <= 4
 0.5 <= w_030 <= 2
 0.5 <= w_031 <= 2
 0.5 <= w_032 <= 2
 2 <= w_033 <= 8
 0.5 <= w_034 <= 2
 1 <= w_035 <= 4
 11 <= w_036 <= 44
 2 <= w_037 <= 8
 1 <= w_038 <= 4
 10 <= w_039 <= 40
 0.5 <= w_040 <= 2
 0.5 <= w_041 <= 2
 0.5 <= w_042 <= 2
 10.5 <= w_043 <= 42
 7 <= w_044 <= 28
 0.5 <= w_045 <= 2
 0.5 <= w_046 <= 2
 2 <= w_047 <= 8
End
