\* independent_energy_feasibility *\
Minimize
OBJ: t
Subject To
_C1: w_000 + w_001 + w_002 + w_003 + w_004 + w_005 + w_006 + w_007 + w_008
 + w_009 + w_010 + w_011 + w_012 + w_013 + w_014 + w_015 + w_016 + w_017
 + w_018 + w_019 + w_020 + w_021 + w_022 + w_023 + w_024 + w_025 + w_026
 + w_027 + w_028 + w_029 + w_030 + w_031 + w_032 + w_033 + w_034 + w_035
 + w_036 + w_037 + w_038 + w_039 + w_040 + w_041 + w_042 + w_043 + w_044
 + w_045 + w_046 + w_047 = 365
_C2: - t + 0.00274010138375 w_000 + 0.00274010138375 w_001
 + 0.00274010138375 w_002 + 0.00287710645294 w_003 + 0.00287710645294 w_004
 + 0.00287710645294 w_005 + 0.00287710645294 w_006 + 0.00287710645294 w_007
 + 0.00287710645294 w_008 + 0.00274010138375 w_009 + 0.00260309631456 w_010
 + 0.00260309631456 w_011 + 0.00274010138375 w_012 + 0.00274010138375 w_013
 + 0.00274010138375 w_014 + 0.00287710645294 w_015 + 0.00274010138375 w_016
 + 0.00287710645294 w_017 + 0.00274010138375 w_018 + 0.00274010138375 w_019
 + 0.00260309631456 w_020 + 0.00287710645294 w_021 + 0.00274010138375 w_022
 + 0.00260309631456 w_023 + 0.00274010138375 w_024 + 0.00287710645294 w_025
 + 0.00260309631456 w_026 + 0.00260309631456 w_027 + 0.00274010138375 w_028
 + 0.00260309631456 w_029 + 0.00287710645294 w_030 + 0.00287710645294 w_031
 + 0.00287710645294 w_032 + 0.00260309631456 w_033 + 0.00287710645294 w_034
 + 0.00260309631456 w_035 + 0.00260309631456 w_036 + 0.00274010138375 w_037
 + 0.00287710645294 w_038 + 0.00260309631456 w_039 + 0.00260309631456 w_040
 + 0.00274010138375 w_041 + 0.00260309631456 w_042 + 0.00287710645294 w_043
 + 0.00274010138375 w_044 + 0.00274010138375 w_045 + 0.00260309631456 w_046
 + 0.00274010138375 w_047 <= 1
_C3: - t - 0.00274010138375 w_000 - 0.00274010138375 w_001
 - 0.00274010138375 w_002 - 0.00287710645294 w_003 - 0.00287710645294 w_004
 - 0.00287710645294 w_005 - 0.00287710645294 w_006 - 0.00287710645294 w_007
 - 0.00287710645294 w_008 - 0.00274010138375 w_009 - 0.00260309631456 w_010
 - 0.00260309631456 w_011 - 0.00274010138375 w_012 - 0.00274010138375 w_013
 - 0.00274010138375 w_014 - 0.00287710645294 w_015 - 0.00274010138375 w_016
 - 0.00287710645294 w_017 - 0.00274010138375 w_018 - 0.00274010138375 w_019
 - 0.00260309631456 w_020 - 0.00287710645294 w_021 - 0.00274010138375 w_022
 - 0.00260309631456 w_023 - 0.00274010138375 w_024 - 0.00287710645294 w_025
 - 0.00260309631456 w_026 - 0.00260309631456 w_027 - 0.00274010138375 w_028
 - 0.00260309631456 w_029 - 0.00287710645294 w_030 - 0.00287710645294 w_031
 - 0.00287710645294 w_032 - 0.00260309631456 w_033 - 0.00287710645294 w_034
 - 0.00260309631456 w_035 - 0.00260309631456 w_036 - 0.00274010138375 w_037
 - 0.00287710645294 w_038 - 0.00260309631456 w_039 - 0.00260309631456 w_040
 - 0.00274010138375 w_041 - 0.00260309631456 w_042 - 0.00287710645294 w_043
 - 0.00274010138375 w_044 - 0.00274010138375 w_045 - 0.00260309631456 w_046
 - 0.00274010138375 w_047 <= -1
_C4: - t + 0.00209563146497 w_000 + 0.000543678928467 w_001
 + 0.0017779797696 w_002 + 0.0117551353438 w_003 + 0.0112572686465 w_004
 + 0.0128335936945 w_005 + 0.0132699728939 w_006 + 0.00247881588833 w_007
 + 0.00684948477421 w_008 + 0.00845068798746 w_009 + 0.0010613672534 w_010
 + 0.00447837313789 w_011 + 0.023738219405 w_012 + 0.00430341693509 w_013
 + 0.0103231238804 w_014 + 0.00118322981084 w_015 + 0.000160899028123 w_016
 + 0.00424567127509 w_017 + 0.000329281731973 w_018 + 0.00370087990834 w_019
 + 0.0108391941133 w_020 + 0.011927057624 w_021 + 0.00908963208531 w_022
 + 0.00313131150709 w_023 + 0.000713983116625 w_024 + 0.0157173371181 w_025
 + 0.00206579789282 w_026 + 0.0148113067014 w_027 + 0.00249337871677 w_028
 + 0.00711950388489 w_029 + 0.0107274446312 w_030 + 0.000111547220629 w_031
 + 0.0191490069617 w_032 + 0.000892074372769 w_033 + 0.00500324174629 w_034
 + 0.00783621753185 w_035 + 0.00476689917638 w_036 + 0.0149962748487 w_037
 + 0.000899962571508 w_038 + 0.00918600969298 w_039 + 0.000203677336669 w_040
 + 9.25346390527e-05 w_041 + 0.00205790969408 w_042 + 0.00801865741037 w_043
 + 0.0004440651367 w_044 + 0.0043615671181 w_045 + 0.00765772175269 w_046
 + 0.00535092927532 w_047 <= 1
_C5: - t - 0.00209563146497 w_000 - 0.000543678928467 w_001
 - 0.0017779797696 w_002 - 0.0117551353438 w_003 - 0.0112572686465 w_004
 - 0.0128335936945 w_005 - 0.0132699728939 w_006 - 0.00247881588833 w_007
 - 0.00684948477421 w_008 - 0.00845068798746 w_009 - 0.0010613672534 w_010
 - 0.00447837313789 w_011 - 0.023738219405 w_012 - 0.00430341693509 w_013
 - 0.0103231238804 w_014 - 0.00118322981084 w_015 - 0.000160899028123 w_016
 - 0.00424567127509 w_017 - 0.000329281731973 w_018 - 0.00370087990834 w_019
 - 0.0108391941133 w_020 - 0.011927057624 w_021 - 0.00908963208531 w_022
 - 0.00313131150709 w_023 - 0.000713983116625 w_024 - 0.0157173371181 w_025
 - 0.00206579789282 w_026 - 0.0148113067014 w_027 - 0.00249337871677 w_028
 - 0.00711950388489 w_029 - 0.0107274446312 w_030 - 0.000111547220629 w_031
 - 0.0191490069617 w_032 - 0.000892074372769 w_033 - 0.00500324174629 w_034
 - 0.00783621753185 w_035 - 0.00476689917638 w_036 - 0.0149962748487 w_037
 - 0.000899962571508 w_038 - 0.00918600969298 w_039 - 0.000203677336669 w_040
 - 9.25346390527e-05 w_041 - 0.00205790969408 w_042 - 0.00801865741037 w_043
 - 0.0004440651367 w_044 - 0.0043615671181 w_045 - 0.00765772175269 w_046
 - 0.00535092927532 w_047 <= -1
_C6: - t + 0.00272557152027 w_000 + 0.00176151681232 w_001
 + 0.00464030020244 w_002 + 0.000324198884116 w_003 + 0.000484273934726 w_004
 + 0.00280417715894 w_005 + 0.00208433318521 w_006 + 0.00112941292648 w_007
 + 0.00234345529057 w_008 + 0.00130425122204 w_009 + 0.00330054806695 w_010
 + 0.000460376240557 w_011 + 0.000414506492865 w_012 + 0.00203604404286 w_013
 + 0.00493961388436 w_014 + 0.00479563521454 w_015 + 0.000749469214437 w_016
 + 0.000977879820274 w_017 + 0.00310309583765 w_018 + 0.00337920308103 w_019
 + 0.000706018861403 w_020 + 0.00116585197255 w_021 + 0.003916061818 w_022
 + 0.00171115390313 w_023 + 0.002613538735 w_024 + 0.00127931664445 w_025
 + 0.00521088233842 w_026 + 0.00408561694564 w_027 + 0.00342813410359 w_028
 + 0.0018404187034 w_029 + 0.00107509998519 w_030 + 0.00215666814793 w_031
 + 0.00188085715696 w_032 + 0.00404379598084 w_033 + 0.00300207376685 w_034
 + 0.00103006961932 w_035 + 0.00500760381178 w_036 + 0.00314062114255 w_037
 + 0.000955364637338 w_038 + 0.0044622031304 w_039 + 0.00238873253345 w_040
 + 0.00241475336987 w_041 + 0.000672443588604 w_042 + 0.000311904409223 w_043
 + 0.00327808225942 w_044 + 0.00249064336148 w_045 + 0.00212304349973 w_046
 + 0.0038741421024 w_047 <= 1
_C7: - t - 0.00272557152027 w_000 - 0.00176151681232 w_001
 - 0.00464030020244 w_002 - 0.000324198884116 w_003 - 0.000484273934726 w_004
 - 0.00280417715894 w_005 - 0.00208433318521 w_006 - 0.00112941292648 w_007
 - 0.00234345529057 w_008 - 0.00130425122204 w_009 - 0.00330054806695 w_010
 - 0.000460376240557 w_011 - 0.000414506492865 w_012 - 0.00203604404286 w_013
 - 0.00493961388436 w_014 - 0.00479563521454 w_015 - 0.000749469214437 w_016
 - 0.000977879820274 w_017 - 0.00310309583765 w_018 - 0.00337920308103 w_019
 - 0.000706018861403 w_020 - 0.00116585197255 w_021 - 0.003916061818 w_022
 - 0.00171115390313 w_023 - 0.002613538735 w_024 - 0.00127931664445 w_025
 - 0.00521088233842 w_026 - 0.00408561694564 w_027 - 0.00342813410359 w_028
 - 0.0018404187034 w_029 - 0.00107509998519 w_030 - 0.00215666814793 w_031
 - 0.00188085715696 w_032 - 0.00404379598084 w_033 - 0.00300207376685 w_034
 - 0.00103006961932 w_035 - 0.00500760381178 w_036 - 0.00314062114255 w_037
 - 0.000955364637338 w_038 - 0.0044622031304 w_039 - 0.00238873253345 w_040
 - 0.00241475336987 w_041 - 0.000672443588604 w_042 - 0.000311904409223 w_043
 - 0.00327808225942 w_044 - 0.00249064336148 w_045 - 0.00212304349973 w_046
 - 0.0038741421024 w_047 <= -1
Bounds
 3 <= w_000 <= 12
 9.5 <= w_001 <= 38
 3.5 <= w_002 <= 14
 2 <= w_003 <= 8
 2 <= w_004 <= 8
 1.5 <= w_005 <= 6
 0.5 <= w_006 <= 2
 1.5 <= w_007 <= 6
 1 <= w_008 <= 4
 1.5 <= w_009 <= 6
 7.5 <= w_010 <= 30
 2 <= w_011 <= 8
 0.5 <= w_012 <= 2
 4 <= w_013 <= 16
 2 <= w_014 <= 8
 12 <= w_015 <= 48
 9 <= w_016 <= 36
 2.5 <= w_017 <= 10
 8 <= w_018 <= 32
 4.5 <= w_019 <= 18
 1 <= w_020 <= 4
 0.5 <= w_021 <= 2
 1 <= w_022 <= 4
 3 <= w_023 <= 12
 11.5 <= w_024 <= 46
 0.5 <= w_025 <= 2
 5 <= w_026 <= 20
 0.5 <= w_027 <= 2
 7 <= w_028 <= 28
 2 <= w_029 <= 8
 1.5 <= w_030 <= 6
 6.5 <= w_031 <= 26
 0.5 <= w_032 <= 2
 11.5 <= w_033 <= 46
 2 <= w_034 <= 8
 2 <= w_035 <= 8
 3 <= w_036 <= 12
 0.5 <= w_037 <= 2
 10 <= w_038 <= 40
 2 <= w_039 <= 8
 9.5 <= w_040 <= 38
 4.5 <= w_041 <= 18
 4 <= w_042 <= 16
 1 <= w_043 <= 4
 9.5 <= w_044 <= 38
 1.5 <= w_045 <= 6
 0.5 <= w_046 <= 2
 2.5 <= w_047 <= 10
End
