*SENSE:Minimize
NAME          independent_energy_feasibility
ROWS
 N  OBJ
 E  _C1
 L  _C2
 L  _C3
 L  _C4
 L  _C5
 L  _C6
 L  _C7
COLUMNS
    t         _C2       -1.000000000000e+00
    t         _C3       -1.000000000000e+00
    t         _C4       -1.000000000000e+00
    t         _C5       -1.000000000000e+00
    t         _C6       -1.000000000000e+00
    t         _C7       -1.000000000000e+00
    t         OBJ        1.000000000000e+00
    w_000     _C1        1.000000000000e+00
    w_000     _C2        2.740101383751e-03
    w_000     _C3       -2.740101383751e-03
    w_000     _C4        2.095631464973e-03
    w_000     _C5       -2.095631464973e-03
    w_000     _C6        2.725571520269e-03
    w_000     _C7       -2.725571520269e-03
    w_001     _C1        1.000000000000e+00
    w_001     _C2        2.740101383751e-03
    w_001     _C3       -2.740101383751e-03
    w_001     _C4        5.436789284671e-04
    w_001     _C5       -5.436789284671e-04
    w_001     _C6        1.761516812324e-03
    w_001     _C7       -1.761516812324e-03
    w_002     _C1        1.000000000000e+00
    w_002     _C2        2.740101383751e-03
    w_002     _C3       -2.740101383751e-03
    w_002     _C4        1.777979769602e-03
    w_002     _C5       -1.777979769602e-03
    w_002     _C6        4.640300202439e-03
    w_002     _C7       -4.640300202439e-03
    w_003     _C1        1.000000000000e+00
    w_003     _C2        2.877106452939e-03
    w_003     _C3       -2.877106452939e-03
    w_003     _C4        1.175513534379e-02
    w_003     _C5       -1.175513534379e-02
    w_003     _C6        3.241988841159e-04
    w_003     _C7       -3.241988841159e-04
    w_004     _C1        1.000000000000e+00
    w_004     _C2        2.877106452939e-03
    w_004     _C3       -2.877106452939e-03
    w_004     _C4        1.125726864646e-02
    w_004     _C5       -1.125726864646e-02
    w_004     _C6        4.842739347257e-04
    w_004     _C7       -4.842739347257e-04
    w_005     _C1        1.000000000000e+00
    w_005     _C2        2.877106452939e-03
    w_005     _C3       -2.877106452939e-03
    w_005     _C4        1.283359369446e-02
    w_005     _C5       -1.283359369446e-02
    w_005     _C6        2.804177158939e-03
    w_005     _C7       -2.804177158939e-03
    w_006     _C1        1.000000000000e+00
    w_006     _C2        2.877106452939e-03
    w_006     _C3       -2.877106452939e-03
    w_006     _C4        1.326997289392e-02
    w_006     _C5       -1.326997289392e-02
    w_006     _C6        2.084333185207e-03
    w_006     _C7       -2.084333185207e-03
    w_007     _C1        1.000000000000e+00
    w_007     _C2        2.877106452939e-03
    w_007     _C3       -2.877106452939e-03
    w_007     _C4        2.478815888329e-03
    w_007     _C5       -2.478815888329e-03
    w_007     _C6        1.129412926480e-03
    w_007     _C7       -1.129412926480e-03
    w_008     _C1        1.000000000000e+00
    w_008     _C2        2.877106452939e-03
    w_008     _C3       -2.877106452939e-03
    w_008     _C4        6.849484774209e-03
    w_008     _C5       -6.849484774209e-03
    w_008     _C6        2.343455290574e-03
    w_008     _C7       -2.343455290574e-03
    w_009     _C1        1.000000000000e+00
    w_009     _C2        2.740101383751e-03
    w_009     _C3       -2.740101383751e-03
    w_009     _C4        8.450687987457e-03
    w_009     _C5       -8.450687987457e-03
    w_009     _C6        1.304251222041e-03
    w_009     _C7       -1.304251222041e-03
    w_010     _C1        1.000000000000e+00
    w_010     _C2        2.603096314564e-03
    w_010     _C3       -2.603096314564e-03
    w_010     _C4        1.061367253397e-03
    w_010     _C5       -1.061367253397e-03
    w_010     _C6        3.300548066953e-03
    w_010     _C7       -3.300548066953e-03
    w_011     _C1        1.000000000000e+00
    w_011     _C2        2.603096314564e-03
    w_011     _C3       -2.603096314564e-03
    w_011     _C4        4.478373137892e-03
    w_011     _C5       -4.478373137892e-03
    w_011     _C6        4.603762405570e-04
    w_011     _C7       -4.603762405570e-04
    w_012     _C1        1.000000000000e+00
    w_012     _C2        2.740101383751e-03
    w_012     _C3       -2.740101383751e-03
    w_012     _C4        2.373821940499e-02
    w_012     _C5       -2.373821940499e-02
    w_012     _C6        4.145064928653e-04
    w_012     _C7       -4.145064928653e-04
    w_013     _C1        1.000000000000e+00
    w_013     _C2        2.740101383751e-03
    w_013     _C3       -2.740101383751e-03
    w_013     _C4        4.303416935093e-03
    w_013     _C5       -4.303416935093e-03
    w_013     _C6        2.036044042858e-03
    w_013     _C7       -2.036044042858e-03
    w_014     _C1        1.000000000000e+00
    w_014     _C2        2.740101383751e-03
    w_014     _C3       -2.740101383751e-03
    w_014     _C4        1.032312388042e-02
    w_014     _C5       -1.032312388042e-02
    w_014     _C6        4.939613884363e-03
    w_014     _C7       -4.939613884363e-03
    w_015     _C1        1.000000000000e+00
    w_015     _C2        2.877106452939e-03
    w_015     _C3       -2.877106452939e-03
    w_015     _C4        1.183229810838e-03
    w_015     _C5       -1.183229810838e-03
    w_015     _C6        4.795635214536e-03
    w_015     _C7       -4.795635214536e-03
    w_016     _C1        1.000000000000e+00
    w_016     _C2        2.740101383751e-03
    w_016     _C3       -2.740101383751e-03
    w_016     _C4        1.608990281233e-04
    w_016     _C5       -1.608990281233e-04
    w_016     _C6        7.494692144374e-04
    w_016     _C7       -7.494692144374e-04
    w_017     _C1        1.000000000000e+00
    w_017     _C2        2.877106452939e-03
    w_017     _C3       -2.877106452939e-03
    w_017     _C4        4.245671275094e-03
    w_017     _C5       -4.245671275094e-03
    w_017     _C6        9.778798202735e-04
    w_017     _C7       -9.778798202735e-04
    w_018     _C1        1.000000000000e+00
    w_018     _C2        2.740101383751e-03
    w_018     _C3       -2.740101383751e-03
    w_018     _C4        3.292817319734e-04
    w_018     _C5       -3.292817319734e-04
    w_018     _C6        3.103095837654e-03
    w_018     _C7       -3.103095837654e-03
    w_019     _C1        1.000000000000e+00
    w_019     _C2        2.740101383751e-03
    w_019     _C3       -2.740101383751e-03
    w_019     _C4        3.700879908343e-03
    w_019     _C5       -3.700879908343e-03
    w_019     _C6        3.379203081025e-03
    w_019     _C7       -3.379203081025e-03
    w_020     _C1        1.000000000000e+00
    w_020     _C2        2.603096314564e-03
    w_020     _C3       -2.603096314564e-03
    w_020     _C4        1.083919411330e-02
    w_020     _C5       -1.083919411330e-02
    w_020     _C6        7.060188614032e-04
    w_020     _C7       -7.060188614032e-04
    w_021     _C1        1.000000000000e+00
    w_021     _C2        2.877106452939e-03
    w_021     _C3       -2.877106452939e-03
    w_021     _C4        1.192705762400e-02
    w_021     _C5       -1.192705762400e-02
    w_021     _C6        1.165851972547e-03
    w_021     _C7       -1.165851972547e-03
    w_022     _C1        1.000000000000e+00
    w_022     _C2        2.740101383751e-03
    w_022     _C3       -2.740101383751e-03
    w_022     _C4        9.089632085309e-03
    w_022     _C5       -9.089632085309e-03
    w_022     _C6        3.916061818002e-03
    w_022     _C7       -3.916061818002e-03
    w_023     _C1        1.000000000000e+00
    w_023     _C2        2.603096314564e-03
    w_023     _C3       -2.603096314564e-03
    w_023     _C4        3.131311507092e-03
    w_023     _C5       -3.131311507092e-03
    w_023     _C6        1.711153903125e-03
    w_023     _C7       -1.711153903125e-03
    w_024     _C1        1.000000000000e+00
    w_024     _C2        2.740101383751e-03
    w_024     _C3       -2.740101383751e-03
    w_024     _C4        7.139831166253e-04
    w_024     _C5       -7.139831166253e-04
    w_024     _C6        2.613538735002e-03
    w_024     _C7       -2.613538735002e-03
    w_025     _C1        1.000000000000e+00
    w_025     _C2        2.877106452939e-03
    w_025     _C3       -2.877106452939e-03
    w_025     _C4        1.571733711805e-02
    w_025     _C5       -1.571733711805e-02
    w_025     _C6        1.279316644448e-03
    w_025     _C7       -1.279316644448e-03
    w_026     _C1        1.000000000000e+00
    w_026     _C2        2.603096314564e-03
    w_026     _C3       -2.603096314564e-03
    w_026     _C4        2.065797892819e-03
    w_026     _C5       -2.065797892819e-03
    w_026     _C6        5.210882338419e-03
    w_026     _C7       -5.210882338419e-03
    w_027     _C1        1.000000000000e+00
    w_027     _C2        2.603096314564e-03
    w_027     _C3       -2.603096314564e-03
    w_027     _C4        1.481130670136e-02
    w_027     _C5       -1.481130670136e-02
    w_027     _C6        4.085616945638e-03
    w_027     _C7       -4.085616945638e-03
    w_028     _C1        1.000000000000e+00
    w_028     _C2        2.740101383751e-03
    w_028     _C3       -2.740101383751e-03
    w_028     _C4        2.493378716770e-03
    w_028     _C5       -2.493378716770e-03
    w_028     _C6        3.428134103590e-03
    w_028     _C7       -3.428134103590e-03
    w_029     _C1        1.000000000000e+00
    w_029     _C2        2.603096314564e-03
    w_029     _C3       -2.603096314564e-03
    w_029     _C4        7.119503884887e-03
    w_029     _C5       -7.119503884887e-03
    w_029     _C6        1.840418703402e-03
    w_029     _C7       -1.840418703402e-03
    w_030     _C1        1.000000000000e+00
    w_030     _C2        2.877106452939e-03
    w_030     _C3       -2.877106452939e-03
    w_030     _C4        1.072744463117e-02
    w_030     _C5       -1.072744463117e-02
    w_030     _C6        1.075099985187e-03
    w_030     _C7       -1.075099985187e-03
    w_031     _C1        1.000000000000e+00
    w_031     _C2        2.877106452939e-03
    w_031     _C3       -2.877106452939e-03
    w_031     _C4        1.115472206286e-04
    w_031     _C5       -1.115472206286e-04
    w_031     _C6        2.156668147929e-03
    w_031     _C7       -2.156668147929e-03
    w_032     _C1        1.000000000000e+00
    w_032     _C2        2.877106452939e-03
    w_032     _C3       -2.877106452939e-03
    w_032     _C4        1.914900696174e-02
    w_032     _C5       -1.914900696174e-02
    w_032     _C6        1.880857156964e-03
    w_032     _C7       -1.880857156964e-03
    w_033     _C1        1.000000000000e+00
    w_033     _C2        2.603096314564e-03
    w_033     _C3       -2.603096314564e-03
    w_033     _C4        8.920743727694e-04
    w_033     _C5       -8.920743727694e-04
    w_033     _C6        4.043795980842e-03
    w_033     _C7       -4.043795980842e-03
    w_034     _C1        1.000000000000e+00
    w_034     _C2        2.877106452939e-03
    w_034     _C3       -2.877106452939e-03
    w_034     _C4        5.003241746289e-03
    w_034     _C5       -5.003241746289e-03
    w_034     _C6        3.002073766849e-03
    w_034     _C7       -3.002073766849e-03
    w_035     _C1        1.000000000000e+00
    w_035     _C2        2.603096314564e-03
    w_035     _C3       -2.603096314564e-03
    w_035     _C4        7.836217531845e-03
    w_035     _C5       -7.836217531845e-03
    w_035     _C6        1.030069619316e-03
    w_035     _C7       -1.030069619316e-03
    w_036     _C1        1.000000000000e+00
    w_036     _C2        2.603096314564e-03
    w_036     _C3       -2.603096314564e-03
    w_036     _C4        4.766899176381e-03
    w_036     _C5       -4.766899176381e-03
    w_036     _C6        5.007603811781e-03
    w_036     _C7       -5.007603811781e-03
    w_037     _C1        1.000000000000e+00
    w_037     _C2        2.740101383751e-03
    w_037     _C3       -2.740101383751e-03
    w_037     _C4        1.499627484871e-02
    w_037     _C5       -1.499627484871e-02
    w_037     _C6        3.140621142547e-03
    w_037     _C7       -3.140621142547e-03
    w_038     _C1        1.000000000000e+00
    w_038     _C2        2.877106452939e-03
    w_038     _C3       -2.877106452939e-03
    w_038     _C4        8.999625715083e-04
    w_038     _C5       -8.999625715083e-04
    w_038     _C6        9.553646373377e-04
    w_038     _C7       -9.553646373377e-04
    w_039     _C1        1.000000000000e+00
    w_039     _C2        2.603096314564e-03
    w_039     _C3       -2.603096314564e-03
    w_039     _C4        9.186009692978e-03
    w_039     _C5       -9.186009692978e-03
    w_039     _C6        4.462203130400e-03
    w_039     _C7       -4.462203130400e-03
    w_040     _C1        1.000000000000e+00
    w_040     _C2        2.603096314564e-03
    w_040     _C3       -2.603096314564e-03
    w_040     _C4        2.036773366690e-04
    w_040     _C5       -2.036773366690e-04
    w_040     _C6        2.388732533452e-03
    w_040     _C7       -2.388732533452e-03
    w_041     _C1        1.000000000000e+00
    w_041     _C2        2.740101383751e-03
    w_041     _C3       -2.740101383751e-03
    w_041     _C4        9.253463905271e-05
    w_041     _C5       -9.253463905271e-05
    w_041     _C6        2.414753369871e-03
    w_041     _C7       -2.414753369871e-03
    w_042     _C1        1.000000000000e+00
    w_042     _C2        2.603096314564e-03
    w_042     _C3       -2.603096314564e-03
    w_042     _C4        2.057909694080e-03
    w_042     _C5       -2.057909694080e-03
    w_042     _C6        6.724435886042e-04
    w_042     _C7       -6.724435886042e-04
    w_043     _C1        1.000000000000e+00
    w_043     _C2        2.877106452939e-03
    w_043     _C3       -2.877106452939e-03
    w_043     _C4        8.018657410371e-03
    w_043     _C5       -8.018657410371e-03
    w_043     _C6        3.119044092233e-04
    w_043     _C7       -3.119044092233e-04
    w_044     _C1        1.000000000000e+00
    w_044     _C2        2.740101383751e-03
    w_044     _C3       -2.740101383751e-03
    w_044     _C4        4.440651367000e-04
    w_044     _C5       -4.440651367000e-04
    w_044     _C6        3.278082259418e-03
    w_044     _C7       -3.278082259418e-03
    w_045     _C1        1.000000000000e+00
    w_045     _C2        2.740101383751e-03
    w_045     _C3       -2.740101383751e-03
    w_045     _C4        4.361567118104e-03
    w_045     _C5       -4.361567118104e-03
    w_045     _C6        2.490643361477e-03
    w_045     _C7       -2.490643361477e-03
    w_046     _C1        1.000000000000e+00
    w_046     _C2        2.603096314564e-03
    w_046     _C3       -2.603096314564e-03
    w_046     _C4        7.657721752689e-03
    w_046     _C5       -7.657721752689e-03
    w_046     _C6        2.123043499728e-03
    w_046     _C7       -2.123043499728e-03
    w_047     _C1        1.000000000000e+00
    w_047     _C2        2.740101383751e-03
    w_047     _C3       -2.740101383751e-03
    w_047     _C4        5.350929275320e-03
    w_047     _C5       -5.350929275320e-03
    w_047     _C6        3.874142102405e-03
    w_047     _C7       -3.874142102405e-03
RHS
    RHS       _C1        3.650000000000e+02
    RHS       _C2        1.000000000000e+00
    RHS       _C3       -1.000000000000e+00
    RHS       _C4        1.000000000000e+00
    RHS       _C5       -1.000000000000e+00
    RHS       _C6        1.000000000000e+00
    RHS       _C7       -1.000000000000e+00
BOUNDS
 LO BND       w_000      3.000000000000e+00
 UP BND       w_000      1.200000000000e+01
 LO BND       w_001      9.500000000000e+00
 UP BND       w_001      3.800000000000e+01
 LO BND       w_002      3.500000000000e+00
 UP BND       w_002      1.400000000000e+01
 LO BND       w_003      2.000000000000e+00
 UP BND       w_003      8.000000000000e+00
 LO BND       w_004      2.000000000000e+00
 UP BND       w_004      8.000000000000e+00
 LO BND       w_005      1.500000000000e+00
 UP BND       w_005      6.000000000000e+00
 LO BND       w_006      5.000000000000e-01
 UP BND       w_006      2.000000000000e+00
 LO BND       w_007      1.500000000000e+00
 UP BND       w_007      6.000000000000e+00
 LO BND       w_008      1.000000000000e+00
 UP BND       w_008      4.000000000000e+00
 LO BND       w_009      1.500000000000e+00
 UP BND       w_009      6.000000000000e+00
 LO BND       w_010      7.500000000000e+00
 UP BND       w_010      3.000000000000e+01
 LO BND       w_011      2.000000000000e+00
 UP BND       w_011      8.000000000000e+00
 LO BND       w_012      5.000000000000e-01
 UP BND       w_012      2.000000000000e+00
 LO BND       w_013      4.000000000000e+00
 UP BND       w_013      1.600000000000e+01
 LO BND       w_014      2.000000000000e+00
 UP BND       w_014      8.000000000000e+00
 LO BND       w_015      1.200000000000e+01
 UP BND       w_015      4.800000000000e+01
 LO BND       w_016      9.000000000000e+00
 UP BND       w_016      3.600000000000e+01
 LO BND       w_017      2.500000000000e+00
 UP BND       w_017      1.000000000000e+01
 LO BND       w_018      8.000000000000e+00
 UP BND       w_018      3.200000000000e+01
 LO BND       w_019      4.500000000000e+00
 UP BND       w_019      1.800000000000e+01
 LO BND       w_020      1.000000000000e+00
 UP BND       w_020      4.000000000000e+00
 LO BND       w_021      5.000000000000e-01
 UP BND       w_021      2.000000000000e+00
 LO BND       w_022      1.000000000000e+00
 UP BND       w_022      4.000000000000e+00
 LO BND       w_023      3.000000000000e+00
 UP BND       w_023      1.200000000000e+01
 LO BND       w_024      1.150000000000e+01
 UP BND       w_024      4.600000000000e+01
 LO BND       w_025      5.000000000000e-01
 UP BND       w_025      2.000000000000e+00
 LO BND       w_026      5.000000000000e+00
 UP BND       w_026      2.000000000000e+01
 LO BND       w_027      5.000000000000e-01
 UP BND       w_027      2.000000000000e+00
 LO BND       w_028      7.000000000000e+00
 UP BND       w_028      2.800000000000e+01
 LO BND       w_029      2.000000000000e+00
 UP BND       w_029      8.000000000000e+00
 LO BND       w_030      1.500000000000e+00
 UP BND       w_030      6.000000000000e+00
 LO BND       w_031      6.500000000000e+00
 UP BND       w_031      2.600000000000e+01
 LO BND       w_032      5.000000000000e-01
 UP BND       w_032      2.000000000000e+00
 LO BND       w_033      1.150000000000e+01
 UP BND       w_033      4.600000000000e+01
 LO BND       w_034      2.000000000000e+00
 UP BND       w_034      8.000000000000e+00
 LO BND       w_035      2.000000000000e+00
 UP BND       w_035      8.000000000000e+00
 LO BND       w_036      3.000000000000e+00
 UP BND       w_036      1.200000000000e+01
 LO BND       w_037      5.000000000000e-01
 UP BND       w_037      2.000000000000e+00
 LO BND       w_038      1.000000000000e+01
 UP BND       w_038      4.000000000000e+01
 LO BND       w_039      2.000000000000e+00
 UP BND       w_039      8.000000000000e+00
 LO BND       w_040      9.500000000000e+00
 UP BND       w_040      3.800000000000e+01
 LO BND       w_041      4.500000000000e+00
 UP BND       w_041      1.800000000000e+01
 LO BND       w_042      4.000000000000e+00
 UP BND       w_042      1.600000000000e+01
 LO BND       w_043      1.000000000000e+00
 UP BND       w_043      4.000000000000e+00
 LO BND       w_044      9.500000000000e+00
 UP BND       w_044      3.800000000000e+01
 LO BND       w_045      1.500000000000e+00
 UP BND       w_045      6.000000000000e+00
 LO BND       w_046      5.000000000000e-01
 UP BND       w_046      2.000000000000e+00
 LO BND       w_047      2.500000000000e+00
 UP BND       w_047      1.000000000000e+01
ENDATA
