\* U11R04_energy_weights *\
Minimize
OBJ: w_014
Subject To
_C1: d_000 - 0.333333333333 w_000 >= -1
_C10: d_004 + 0.333333333333 w_004 >= 1
_C100: - 0.0101955980008 w_000 - 0.000853037902087 w_001
 - 0.00151251154281 w_002 - 0.000892074372769 w_003 - 0.0131501329515 w_004
 - 0.00845068798746 w_005 - 0.000652293357257 w_006 - 0.0109740014071 w_007
 - 0.00500324174629 w_008 - 0.000251613313621 w_009 - 0.023738219405 w_010
 - 0.0052199649501 w_011 - 3.56991558313e-05 w_012 - 0.000720556615574 w_013
 - 0.0103231238804 w_014 - 0.0149962748487 w_015 - 0.00872869642763 w_016
 - 0.00104275919483 w_017 - 0.00476689917638 w_018 - 0.000111547220629 w_019
 - 0.0157491933053 w_020 - 0.00684948477421 w_021 - 0.00409377288399 w_022
 - 0.00713780855119 w_023 - 0.0107274446312 w_024 - 0.00711950388489 w_025
 - 0.0157173371181 w_026 - 0.00161637282621 w_027 - 0.00158694377707 w_028
 - 0.0132699728939 w_029 - 0.00163194696218 w_030 - 0.00460013456458 w_031
 - 0.00492911290429 w_032 - 0.000275480171344 w_033 - 0.00298993071431 w_034
 - 0.00765772175269 w_035 - 0.0148113067014 w_036 - 0.0117398646001 w_037
 - 0.000602031372984 w_038 - 0.000899962571508 w_039 - 0.00326804028523 w_040
 - 0.00118322981084 w_041 - 0.011927057624 w_042 - 0.0122054705872 w_043
 - 0.00279778228349 w_044 - 0.00874639430941 w_045 - 0.00447837313789 w_046
 - 0.00801865741037 w_047 - worst_relative_error <= -1
_C101: 0.000412037722806 w_000 + 0.003109169012 w_001
 + 0.000755394262578 w_002 + 0.00404379598084 w_003 + 0.00108853009431 w_004
 + 0.00130425122204 w_005 + 0.00318036834049 w_006 + 0.0024664494149 w_007
 + 0.00300207376685 w_008 + 0.00267283859181 w_009 + 0.000414506492865 w_010
 + 0.00374107539624 w_011 + 0.00467061669876 w_012 + 0.00188885597195 w_013
 + 0.00493961388436 w_014 + 0.00314062114255 w_015 + 0.000928257542093 w_016
 + 0.00309164074458 w_017 + 0.00500760381178 w_018 + 0.00215666814793 w_019
 + 0.000329531427443 w_020 + 0.00234345529057 w_021 + 0.00374996296845 w_022
 + 0.00461437811682 w_023 + 0.00107509998519 w_024 + 0.0018404187034 w_025
 + 0.00127931664445 w_026 + 0.00136636547672 w_027 + 0.00229067298672 w_028
 + 0.00208433318521 w_029 + 0.00405949735842 w_030 + 0.00201313385671 w_031
 + 0.00096721473362 w_032 + 0.00114496617785 w_033 + 0.00190677924258 w_034
 + 0.00212304349973 w_035 + 0.00408561694564 w_036 + 0.00386481015158 w_037
 + 0.00324455636202 w_038 + 0.000955364637338 w_039 + 0.00044916802449 w_040
 + 0.00479563521454 w_041 + 0.00116585197255 w_042 + 0.00144077420629 w_043
 + 0.0037605786797 w_044 + 0.000370315508814 w_045 + 0.000460376240557 w_046
 + 0.000311904409223 w_047 - worst_relative_error <= 1
_C102: - 0.000412037722806 w_000 - 0.003109169012 w_001
 - 0.000755394262578 w_002 - 0.00404379598084 w_003 - 0.00108853009431 w_004
 - 0.00130425122204 w_005 - 0.00318036834049 w_006 - 0.0024664494149 w_007
 - 0.00300207376685 w_008 - 0.00267283859181 w_009 - 0.000414506492865 w_010
 - 0.00374107539624 w_011 - 0.00467061669876 w_012 - 0.00188885597195 w_013
 - 0.00493961388436 w_014 - 0.00314062114255 w_015 - 0.000928257542093 w_016
 - 0.00309164074458 w_017 - 0.00500760381178 w_018 - 0.00215666814793 w_019
 - 0.000329531427443 w_020 - 0.00234345529057 w_021 - 0.00374996296845 w_022
 - 0.00461437811682 w_023 - 0.00107509998519 w_024 - 0.0018404187034 w_025
 - 0.00127931664445 w_026 - 0.00136636547672 w_027 - 0.00229067298672 w_028
 - 0.00208433318521 w_029 - 0.00405949735842 w_030 - 0.00201313385671 w_031
 - 0.00096721473362 w_032 - 0.00114496617785 w_033 - 0.00190677924258 w_034
 - 0.00212304349973 w_035 - 0.00408561694564 w_036 - 0.00386481015158 w_037
 - 0.00324455636202 w_038 - 0.000955364637338 w_039 - 0.00044916802449 w_040
 - 0.00479563521454 w_041 - 0.00116585197255 w_042 - 0.00144077420629 w_043
 - 0.0037605786797 w_044 - 0.000370315508814 w_045 - 0.000460376240557 w_046
 - 0.000311904409223 w_047 - worst_relative_error <= -1
_C103: w_002 >= 11.9999999885
_C104: w_002 <= 11.9999999905
_C105: w_009 >= 19.9999999958
_C106: w_009 <= 19.9999999978
_C107: w_004 >= 4.0913273987
_C108: w_004 <= 4.0913274007
_C109: w_010 >= 0.999999998998
_C11: d_005 - 0.25 w_005 >= -1
_C110: w_010 <= 1.000000001
_C111: w_038 >= 18.9999999987
_C112: w_038 <= 19.0000000007
_C113: w_005 >= 3.99999999887
_C114: w_005 <= 4.00000000087
_C115: w_000 >= 2.99999999858
_C116: w_000 <= 3.00000000058
_C117: w_003 >= 19.9999999763
_C118: w_003 <= 19.9999999783
_C119: w_037 >= 0.999999998986
_C12: d_005 + 0.25 w_005 >= 1
_C120: w_037 <= 1.00000000099
_C121: w_042 >= 0.999999998987
_C122: w_042 <= 1.00000000099
_C123: w_019 >= 17.9999999987
_C124: w_019 <= 18.0000000007
_C125: w_015 >= 0.999999998983
_C126: w_015 <= 1.00000000098
_C127: w_026 >= 1.99999999897
_C128: w_026 <= 2.00000000097
_C129: w_022 >= 7.99999999889
_C13: d_006 - 0.0666666666667 w_006 >= -1
_C130: w_022 <= 8.00000000089
_C131: w_023 >= 2.9999999988
_C132: w_023 <= 3.0000000008
_C133: w_018 >= 7.9999999976
_C134: w_018 <= 7.9999999996
_C14: d_006 + 0.0666666666667 w_006 >= 1
_C15: d_007 - 0.5 w_007 >= -1
_C16: d_007 + 0.5 w_007 >= 1
_C17: d_008 - 0.5 w_008 >= -1
_C18: d_008 + 0.5 w_008 >= 1
_C19: d_009 - 0.05 w_009 >= -1
_C2: d_000 + 0.333333333333 w_000 >= 1
_C20: d_009 + 0.05 w_009 >= 1
_C21: d_010 - w_010 >= -1
_C22: d_010 + w_010 >= 1
_C23: d_011 - 0.2 w_011 >= -1
_C24: d_011 + 0.2 w_011 >= 1
_C25: d_012 - 0.0555555555556 w_012 >= -1
_C26: d_012 + 0.0555555555556 w_012 >= 1
_C27: d_013 - 0.0454545454545 w_013 >= -1
_C28: d_013 + 0.0454545454545 w_013 >= 1
_C29: d_014 - 0.25 w_014 >= -1
_C3: d_001 - 0.1 w_001 >= -1
_C30: d_014 + 0.25 w_014 >= 1
_C31: d_015 - w_015 >= -1
_C32: d_015 + w_015 >= 1
_C33: d_016 - 0.25 w_016 >= -1
_C34: d_016 + 0.25 w_016 >= 1
_C35: d_017 - 0.0833333333333 w_017 >= -1
_C36: d_017 + 0.0833333333333 w_017 >= 1
_C37: d_018 - 0.125 w_018 >= -1
_C38: d_018 + 0.125 w_018 >= 1
_C39: d_019 - 0.0555555555556 w_019 >= -1
_C4: d_001 + 0.1 w_001 >= 1
_C40: d_019 + 0.0555555555556 w_019 >= 1
_C41: d_020 - w_020 >= -1
_C42: d_020 + w_020 >= 1
_C43: d_021 - 0.5 w_021 >= -1
_C44: d_021 + 0.5 w_021 >= 1
_C45: d_022 - 0.125 w_022 >= -1
_C46: d_022 + 0.125 w_022 >= 1
_C47: d_023 - 0.333333333333 w_023 >= -1
_C48: d_023 + 0.333333333333 w_023 >= 1
_C49: d_024 - 0.333333333333 w_024 >= -1
_C5: d_002 - 0.0833333333333 w_002 >= -1
_C50: d_024 + 0.333333333333 w_024 >= 1
_C51: d_025 - 0.25 w_025 >= -1
_C52: d_025 + 0.25 w_025 >= 1
_C53: d_026 - 0.5 w_026 >= -1
_C54: d_026 + 0.5 w_026 >= 1
_C55: d_027 - 0.2 w_027 >= -1
_C56: d_027 + 0.2 w_027 >= 1
_C57: d_028 - 0.0833333333333 w_028 >= -1
_C58: d_028 + 0.0833333333333 w_028 >= 1
_C59: d_029 - w_029 >= -1
_C6: d_002 + 0.0833333333333 w_002 >= 1
_C60: d_029 + w_029 >= 1
_C61: d_030 - 0.0625 w_030 >= -1
_C62: d_030 + 0.0625 w_030 >= 1
_C63: d_031 - 0.2 w_031 >= -1
_C64: d_031 + 0.2 w_031 >= 1
_C65: d_032 - 0.25 w_032 >= -1
_C66: d_032 + 0.25 w_032 >= 1
_C67: d_033 - 0.0625 w_033 >= -1
_C68: d_033 + 0.0625 w_033 >= 1
_C69: d_034 - 0.1 w_034 >= -1
_C7: d_003 - 0.05 w_003 >= -1
_C70: d_034 + 0.1 w_034 >= 1
_C71: d_035 - w_035 >= -1
_C72: d_035 + w_035 >= 1
_C73: d_036 - w_036 >= -1
_C74: d_036 + w_036 >= 1
_C75: d_037 - w_037 >= -1
_C76: d_037 + w_037 >= 1
_C77: d_038 - 0.0526315789474 w_038 >= -1
_C78: d_038 + 0.0526315789474 w_038 >= 1
_C79: d_039 - 0.0454545454545 w_039 >= -1
_C8: d_003 + 0.05 w_003 >= 1
_C80: d_039 + 0.0454545454545 w_039 >= 1
_C81: d_040 - 0.25 w_040 >= -1
_C82: d_040 + 0.25 w_040 >= 1
_C83: d_041 - 0.0526315789474 w_041 >= -1
_C84: d_041 + 0.0526315789474 w_041 >= 1
_C85: d_042 - w_042 >= -1
_C86: d_042 + w_042 >= 1
_C87: d_043 - w_043 >= -1
_C88: d_043 + w_043 >= 1
_C89: d_044 - 0.0769230769231 w_044 >= -1
_C9: d_004 - 0.333333333333 w_004 >= -1
_C90: d_044 + 0.0769230769231 w_044 >= 1
_C91: d_045 - w_045 >= -1
_C92: d_045 + w_045 >= 1
_C93: d_046 - 0.25 w_046 >= -1
_C94: d_046 + 0.25 w_046 >= 1
_C95: d_047 - 0.5 w_047 >= -1
_C96: d_047 + 0.5 w_047 >= 1
_C97: 0.00274010138375 w_000 + 0.00274010138375 w_001 + 0.00274010138375 w_002
 + 0.00260309631456 w_003 + 0.00260309631456 w_004 + 0.00274010138375 w_005
 + 0.00287710645294 w_006 + 0.00274010138375 w_007 + 0.00287710645294 w_008
 + 0.00274010138375 w_009 + 0.00274010138375 w_010 + 0.00260309631456 w_011
 + 0.00260309631456 w_012 + 0.00260309631456 w_013 + 0.00274010138375 w_014
 + 0.00274010138375 w_015 + 0.00274010138375 w_016 + 0.00260309631456 w_017
 + 0.00260309631456 w_018 + 0.00287710645294 w_019 + 0.00260309631456 w_020
 + 0.00287710645294 w_021 + 0.00274010138375 w_022 + 0.00287710645294 w_023
 + 0.00287710645294 w_024 + 0.00260309631456 w_025 + 0.00287710645294 w_026
 + 0.00260309631456 w_027 + 0.00274010138375 w_028 + 0.00287710645294 w_029
 + 0.00274010138375 w_030 + 0.00287710645294 w_031 + 0.00274010138375 w_032
 + 0.00274010138375 w_033 + 0.00274010138375 w_034 + 0.00260309631456 w_035
 + 0.00260309631456 w_036 + 0.00274010138375 w_037 + 0.00260309631456 w_038
 + 0.00287710645294 w_039 + 0.00274010138375 w_040 + 0.00287710645294 w_041
 + 0.00287710645294 w_042 + 0.00287710645294 w_043 + 0.00274010138375 w_044
 + 0.00274010138375 w_045 + 0.00260309631456 w_046 + 0.00287710645294 w_047
 - worst_relative_error <= 1
_C98: - 0.00274010138375 w_000 - 0.00274010138375 w_001
 - 0.00274010138375 w_002 - 0.00260309631456 w_003 - 0.00260309631456 w_004
 - 0.00274010138375 w_005 - 0.00287710645294 w_006 - 0.00274010138375 w_007
 - 0.00287710645294 w_008 - 0.00274010138375 w_009 - 0.00274010138375 w_010
 - 0.00260309631456 w_011 - 0.00260309631456 w_012 - 0.00260309631456 w_013
 - 0.00274010138375 w_014 - 0.00274010138375 w_015 - 0.00274010138375 w_016
 - 0.00260309631456 w_017 - 0.00260309631456 w_018 - 0.00287710645294 w_019
 - 0.00260309631456 w_020 - 0.00287710645294 w_021 - 0.00274010138375 w_022
 - 0.00287710645294 w_023 - 0.00287710645294 w_024 - 0.00260309631456 w_025
 - 0.00287710645294 w_026 - 0.00260309631456 w_027 - 0.00274010138375 w_028
 - 0.00287710645294 w_029 - 0.00274010138375 w_030 - 0.00287710645294 w_031
 - 0.00274010138375 w_032 - 0.00274010138375 w_033 - 0.00274010138375 w_034
 - 0.00260309631456 w_035 - 0.00260309631456 w_036 - 0.00274010138375 w_037
 - 0.00260309631456 w_038 - 0.00287710645294 w_039 - 0.00274010138375 w_040
 - 0.00287710645294 w_041 - 0.00287710645294 w_042 - 0.00287710645294 w_043
 - 0.00274010138375 w_044 - 0.00274010138375 w_045 - 0.00260309631456 w_046
 - 0.00287710645294 w_047 - worst_relative_error <= -1
_C99: 0.0101955980008 w_000 + 0.000853037902087 w_001 + 0.00151251154281 w_002
 + 0.000892074372769 w_003 + 0.0131501329515 w_004 + 0.00845068798746 w_005
 + 0.000652293357257 w_006 + 0.0109740014071 w_007 + 0.00500324174629 w_008
 + 0.000251613313621 w_009 + 0.023738219405 w_010 + 0.0052199649501 w_011
 + 3.56991558313e-05 w_012 + 0.000720556615574 w_013 + 0.0103231238804 w_014
 + 0.0149962748487 w_015 + 0.00872869642763 w_016 + 0.00104275919483 w_017
 + 0.00476689917638 w_018 + 0.000111547220629 w_019 + 0.0157491933053 w_020
 + 0.00684948477421 w_021 + 0.00409377288399 w_022 + 0.00713780855119 w_023
 + 0.0107274446312 w_024 + 0.00711950388489 w_025 + 0.0157173371181 w_026
 + 0.00161637282621 w_027 + 0.00158694377707 w_028 + 0.0132699728939 w_029
 + 0.00163194696218 w_030 + 0.00460013456458 w_031 + 0.00492911290429 w_032
 + 0.000275480171344 w_033 + 0.00298993071431 w_034 + 0.00765772175269 w_035
 + 0.0148113067014 w_036 + 0.0117398646001 w_037 + 0.000602031372984 w_038
 + 0.000899962571508 w_039 + 0.00326804028523 w_040 + 0.00118322981084 w_041
 + 0.011927057624 w_042 + 0.0122054705872 w_043 + 0.00279778228349 w_044
 + 0.00874639430941 w_045 + 0.00447837313789 w_046 + 0.00801865741037 w_047
 - worst_relative_error <= 1
primary_optimum_band: worst_relative_error <= 1e-09
secondary_optimum_band: d_000 + d_001 + d_002 + d_003 + d_004 + d_005 + d_006
 + d_007 + d_008 + d_009 + d_010 + d_011 + d_012 + d_013 + d_014 + d_015
 + d_016 + d_017 + d_018 + d_019 + d_020 + d_021 + d_022 + d_023 + d_024
 + d_025 + d_026 + d_027 + d_028 + d_029 + d_030 + d_031 + d_032 + d_033
 + d_034 + d_035 + d_036 + d_037 + d_038 + d_039 + d_040 + d_041 + d_042
 + d_043 + d_044 + d_045 + d_046 + d_047 <= 3.00057266714
total_days: w_000 + w_001 + w_002 + w_003 + w_004 + w_005 + w_006 + w_007
 + w_008 + w_009 + w_010 + w_011 + w_012 + w_013 + w_014 + w_015 + w_016
 + w_017 + w_018 + w_019 + w_020 + w_021 + w_022 + w_023 + w_024 + w_025
 + w_026 + w_027 + w_028 + w_029 + w_030 + w_031 + w_032 + w_033 + w_034
 + w_035 + w_036 + w_037 + w_038 + w_039 + w_040 + w_041 + w_042 + w_043
 + w_044 + w_045 + w_046 + w_047 = 365
Bounds
 1.5 <= w_000 <= 6
 5 <= w_001 <= 20
 6 <= w_002 <= 24
 10 <= w_003 <= 40
 1.5 <= w_004 <= 6
 2 <= w_005 <= 8
 7.5 <= w_006 <= 30
 1 <= w_007 <= 4
 1 <= w_008 <= 4
 10 <= w_009 <= 40
 0.5 <= w_010 <= 2
 2.5 <= w_011 <= 10
 9 <= w_012 <= 36
 11 <= w_013 <= 44
 2 <= w_014 <= 8
 0.5 <= w_015 <= 2
 2 <= w_016 <= 8
 6 <= w_017 <= 24
 4 <= w_018 <= 16
 9 <= w_019 <= 36
 0.5 <= w_020 <= 2
 1 <= w_021 <= 4
 4 <= w_022 <= 16
 1.5 <= w_023 <= 6
 1.5 <= w_024 <= 6
 2 <= w_025 <= 8
 1 <= w_026 <= 4
 2.5 <= w_027 <= 10
 6 <= w_028 <= 24
 0.5 <= w_029 <= 2
 8 <= w_030 <= 32
 2.5 <= w_031 <= 10
 2 <= w_032 <= 8
 8 <= w_033 <= 32
 5 <= w_034 <= 20
 0.5 <= w_035 <= 2
 0.5 <= w_036 <= 2
 0.5 <= w_037 <= 2
 9.5 <= w_038 <= 38
 11 <= w_039 <= 44
 2 <= w_040 <= 8
 9.5 <= w_041 <= 38
 0.5 <= w_042 <= 2
 0.5 <= w_043 <= 2
 6.5 <= w_044 <= 26
 0.5 <= w_045 <= 2
 2 <= w_046 <= 8
 1 <= w_047 <= 4
End
