*SENSE:Minimize
NAME          MODEL
ROWS
 N  OBJ
 E  C0000000
 L  C0000001
 L  C0000002
 L  C0000003
 L  C0000004
 L  C0000005
 L  C0000006
 L  C0000007
 L  C0000008
COLUMNS
    X0000000  C0000000   1.000000000000e+00
    X0000000  C0000001   2.877106452939e-03
    X0000000  C0000002  -2.877106452939e-03
    X0000000  C0000003   1.125726864646e-02
    X0000000  C0000004  -1.125726864646e-02
    X0000000  C0000005   4.842739347257e-04
    X0000000  C0000006  -4.842739347257e-04
    X0000000  C0000007   1.495938094003e-03
    X0000000  C0000008  -1.495938094003e-03
    X0000001  C0000000   1.000000000000e+00
    X0000001  C0000001   2.740101383751e-03
    X0000001  C0000002  -2.740101383751e-03
    X0000001  C0000005   3.643657729719e-03
    X0000001  C0000006  -3.643657729719e-03
    X0000001  C0000007   3.722027103654e-03
    X0000001  C0000008  -3.722027103654e-03
    X0000002  C0000000   1.000000000000e+00
    X0000002  C0000001   2.740101383751e-03
    X0000002  C0000002  -2.740101383751e-03
    X0000002  C0000003   1.512511542811e-03
    X0000002  C0000004  -1.512511542811e-03
    X0000002  C0000005   7.553942625784e-04
    X0000002  C0000006  -7.553942625784e-04
    X0000002  C0000007   2.991562212123e-03
    X0000002  C0000008  -2.991562212123e-03
    X0000003  C0000000   1.000000000000e+00
    X0000003  C0000001   2.740101383751e-03
    X0000003  C0000002  -2.740101383751e-03
    X0000003  C0000003   1.777979769602e-03
    X0000003  C0000004  -1.777979769602e-03
    X0000003  C0000005   4.640300202439e-03
    X0000003  C0000006  -4.640300202439e-03
    X0000003  C0000007   2.232525515250e-03
    X0000003  C0000008  -2.232525515250e-03
    X0000004  C0000000   1.000000000000e+00
    X0000004  C0000001   2.877106452939e-03
    X0000004  C0000002  -2.877106452939e-03
    X0000004  C0000003   1.175513534379e-02
    X0000004  C0000004  -1.175513534379e-02
    X0000004  C0000005   3.241988841159e-04
    X0000004  C0000006  -3.241988841159e-04
    X0000004  C0000007   8.273264514006e-05
    X0000004  C0000008  -8.273264514006e-05
    X0000005  C0000000   1.000000000000e+00
    X0000005  C0000001   2.740101383751e-03
    X0000005  C0000002  -2.740101383751e-03
    X0000005  C0000003   8.450687987457e-03
    X0000005  C0000004  -8.450687987457e-03
    X0000005  C0000005   1.304251222041e-03
    X0000005  C0000006  -1.304251222041e-03
    X0000005  C0000007   8.741088579504e-04
    X0000005  C0000008  -8.741088579504e-04
    X0000006  C0000000   1.000000000000e+00
    X0000006  C0000001   2.877106452939e-03
    X0000006  C0000002  -2.877106452939e-03
    X0000006  C0000003   9.750015902811e-04
    X0000006  C0000004  -9.750015902811e-04
    X0000006  C0000005   3.078161260060e-03
    X0000006  C0000006  -3.078161260060e-03
    X0000006  C0000007   4.230511045986e-03
    X0000006  C0000008  -4.230511045986e-03
    X0000007  C0000000   1.000000000000e+00
    X0000007  C0000001   2.740101383751e-03
    X0000007  C0000002  -2.740101383751e-03
    X0000007  C0000003   1.097400140713e-02
    X0000007  C0000004  -1.097400140713e-02
    X0000007  C0000005   2.466449414901e-03
    X0000007  C0000006  -2.466449414901e-03
    X0000007  C0000007   1.436753640079e-03
    X0000007  C0000008  -1.436753640079e-03
    X0000008  C0000000   1.000000000000e+00
    X0000008  C0000001   2.877106452939e-03
    X0000008  C0000002  -2.877106452939e-03
    X0000008  C0000003   5.003241746289e-03
    X0000008  C0000004  -5.003241746289e-03
    X0000008  C0000005   3.002073766849e-03
    X0000008  C0000006  -3.002073766849e-03
    X0000008  C0000007   4.238360443058e-03
    X0000008  C0000008  -4.238360443058e-03
    X0000009  C0000000   1.000000000000e+00
    X0000009  C0000001   2.740101383751e-03
    X0000009  C0000002  -2.740101383751e-03
    X0000009  C0000003   1.021016082925e-03
    X0000009  C0000004  -1.021016082925e-03
    X0000009  C0000005   2.595516713573e-03
    X0000009  C0000006  -2.595516713573e-03
    X0000009  C0000007   3.095645217300e-03
    X0000009  C0000008  -3.095645217300e-03
    X0000010  C0000000   1.000000000000e+00
    X0000010  C0000001   2.740101383751e-03
    X0000010  C0000002  -2.740101383751e-03
    X0000010  C0000003   2.373821940499e-02
    X0000010  C0000004  -2.373821940499e-02
    X0000010  C0000005   4.145064928653e-04
    X0000010  C0000006  -4.145064928653e-04
    X0000011  C0000000   1.000000000000e+00
    X0000011  C0000001   2.603096314564e-03
    X0000011  C0000002  -2.603096314564e-03
    X0000011  C0000003   5.721067831531e-03
    X0000011  C0000004  -5.721067831531e-03
    X0000011  C0000005   3.327902039204e-03
    X0000011  C0000006  -3.327902039204e-03
    X0000011  C0000007   7.072306761973e-04
    X0000011  C0000008  -7.072306761973e-04
    X0000012  C0000000   1.000000000000e+00
    X0000012  C0000001   2.603096314564e-03
    X0000012  C0000002  -2.603096314564e-03
    X0000012  C0000003   3.569915583126e-05
    X0000012  C0000004  -3.569915583126e-05
    X0000012  C0000005   4.670616698761e-03
    X0000012  C0000006  -4.670616698761e-03
    X0000012  C0000007   2.480409474787e-03
    X0000012  C0000008  -2.480409474787e-03
    X0000013  C0000000   1.000000000000e+00
    X0000013  C0000001   2.603096314564e-03
    X0000013  C0000002  -2.603096314564e-03
    X0000013  C0000003   3.132019422363e-04
    X0000013  C0000004  -3.132019422363e-04
    X0000013  C0000005   2.246235125660e-03
    X0000013  C0000006  -2.246235125660e-03
    X0000013  C0000007   2.512435014842e-03
    X0000013  C0000008  -2.512435014842e-03
    X0000014  C0000000   1.000000000000e+00
    X0000014  C0000001   2.740101383751e-03
    X0000014  C0000002  -2.740101383751e-03
    X0000014  C0000003   1.032312388042e-02
    X0000014  C0000004  -1.032312388042e-02
    X0000014  C0000005   4.939613884363e-03
    X0000014  C0000006  -4.939613884363e-03
    X0000014  C0000007   1.294836541016e-03
    X0000014  C0000008  -1.294836541016e-03
    X0000015  C0000000   1.000000000000e+00
    X0000015  C0000001   2.740101383751e-03
    X0000015  C0000002  -2.740101383751e-03
    X0000015  C0000003   1.499627484871e-02
    X0000015  C0000004  -1.499627484871e-02
    X0000015  C0000005   3.140621142547e-03
    X0000015  C0000006  -3.140621142547e-03
    X0000016  C0000000   1.000000000000e+00
    X0000016  C0000001   2.603096314564e-03
    X0000016  C0000002  -2.603096314564e-03
    X0000016  C0000003   7.836217531845e-03
    X0000016  C0000004  -7.836217531845e-03
    X0000016  C0000005   1.030069619316e-03
    X0000016  C0000006  -1.030069619316e-03
    X0000017  C0000000   1.000000000000e+00
    X0000017  C0000001   2.740101383751e-03
    X0000017  C0000002  -2.740101383751e-03
    X0000017  C0000003   1.417044111920e-03
    X0000017  C0000004  -1.417044111920e-03
    X0000017  C0000005   2.497901545450e-03
    X0000017  C0000006  -2.497901545450e-03
    X0000017  C0000007   2.652468258608e-03
    X0000017  C0000008  -2.652468258608e-03
    X0000018  C0000000   1.000000000000e+00
    X0000018  C0000001   2.603096314564e-03
    X0000018  C0000002  -2.603096314564e-03
    X0000018  C0000003   4.766899176381e-03
    X0000018  C0000004  -4.766899176381e-03
    X0000018  C0000005   5.007603811781e-03
    X0000018  C0000006  -5.007603811781e-03
    X0000018  C0000007   6.036186348454e-04
    X0000018  C0000008  -6.036186348454e-04
    X0000019  C0000000   1.000000000000e+00
    X0000019  C0000001   2.877106452939e-03
    X0000019  C0000002  -2.877106452939e-03
    X0000019  C0000003   8.899506269550e-04
    X0000019  C0000004  -8.899506269550e-04
    X0000019  C0000005   2.111588406656e-03
    X0000019  C0000006  -2.111588406656e-03
    X0000019  C0000007   5.005403524944e-03
    X0000019  C0000008  -5.005403524944e-03
    X0000020  C0000000   1.000000000000e+00
    X0000020  C0000001   2.603096314564e-03
    X0000020  C0000002  -2.603096314564e-03
    X0000020  C0000003   1.574919330527e-02
    X0000020  C0000004  -1.574919330527e-02
    X0000020  C0000005   3.295314274428e-04
    X0000020  C0000006  -3.295314274428e-04
    X0000020  C0000007   3.700205779794e-04
    X0000020  C0000008  -3.700205779794e-04
    X0000021  C0000000   1.000000000000e+00
    X0000021  C0000001   2.877106452939e-03
    X0000021  C0000002  -2.877106452939e-03
    X0000021  C0000003   6.849484774209e-03
    X0000021  C0000004  -6.849484774209e-03
    X0000021  C0000005   2.343455290574e-03
    X0000021  C0000006  -2.343455290574e-03
    X0000021  C0000007   4.097385271643e-04
    X0000021  C0000008  -4.097385271643e-04
    X0000022  C0000000   1.000000000000e+00
    X0000022  C0000001   2.877106452939e-03
    X0000022  C0000002  -2.877106452939e-03
    X0000022  C0000003   3.789571578779e-03
    X0000022  C0000004  -3.789571578779e-03
    X0000022  C0000005   4.645385868760e-03
    X0000022  C0000006  -4.645385868760e-03
    X0000022  C0000007   2.120436125060e-03
    X0000022  C0000008  -2.120436125060e-03
    X0000023  C0000000   1.000000000000e+00
    X0000023  C0000001   2.877106452939e-03
    X0000023  C0000002  -2.877106452939e-03
    X0000023  C0000003   1.034658621513e-02
    X0000023  C0000004  -1.034658621513e-02
    X0000023  C0000005   4.232459388733e-03
    X0000023  C0000006  -4.232459388733e-03
    X0000023  C0000007   7.723806718958e-05
    X0000023  C0000008  -7.723806718958e-05
    X0000024  C0000000   1.000000000000e+00
    X0000024  C0000001   2.877106452939e-03
    X0000024  C0000002  -2.877106452939e-03
    X0000024  C0000003   1.072744463117e-02
    X0000024  C0000004  -1.072744463117e-02
    X0000024  C0000005   1.075099985187e-03
    X0000024  C0000006  -1.075099985187e-03
    X0000024  C0000007   1.004722825230e-05
    X0000024  C0000008  -1.004722825230e-05
    X0000025  C0000000   1.000000000000e+00
    X0000025  C0000001   2.603096314564e-03
    X0000025  C0000002  -2.603096314564e-03
    X0000025  C0000003   5.583125484353e-03
    X0000025  C0000004  -5.583125484353e-03
    X0000025  C0000005   2.532316200069e-03
    X0000025  C0000006  -2.532316200069e-03
    X0000025  C0000007   1.497978937242e-03
    X0000025  C0000008  -1.497978937242e-03
    X0000026  C0000000   1.000000000000e+00
    X0000026  C0000001   2.877106452939e-03
    X0000026  C0000002  -2.877106452939e-03
    X0000026  C0000003   1.571733711805e-02
    X0000026  C0000004  -1.571733711805e-02
    X0000026  C0000005   1.279316644448e-03
    X0000026  C0000006  -1.279316644448e-03
    X0000027  C0000000   1.000000000000e+00
    X0000027  C0000001   2.603096314564e-03
    X0000027  C0000002  -2.603096314564e-03
    X0000027  C0000003   1.616372826207e-03
    X0000027  C0000004  -1.616372826207e-03
    X0000027  C0000005   1.366365476719e-03
    X0000027  C0000006  -1.366365476719e-03
    X0000027  C0000007   1.530161465238e-03
    X0000027  C0000008  -1.530161465238e-03
    X0000028  C0000000   1.000000000000e+00
    X0000028  C0000001   2.877106452939e-03
    X0000028  C0000002  -2.877106452939e-03
    X0000028  C0000003   2.450398146718e-03
    X0000028  C0000004  -2.450398146718e-03
    X0000028  C0000005   2.620451291167e-03
    X0000028  C0000006  -2.620451291167e-03
    X0000028  C0000007   2.762202829676e-03
    X0000028  C0000008  -2.762202829676e-03
    X0000029  C0000000   1.000000000000e+00
    X0000029  C0000001   2.877106452939e-03
    X0000029  C0000002  -2.877106452939e-03
    X0000029  C0000003   1.326997289392e-02
    X0000029  C0000004  -1.326997289392e-02
    X0000029  C0000005   2.084333185207e-03
    X0000029  C0000006  -2.084333185207e-03
    X0000029  C0000007   4.957679190746e-04
    X0000029  C0000008  -4.957679190746e-04
    X0000030  C0000000   1.000000000000e+00
    X0000030  C0000001   2.877106452939e-03
    X0000030  C0000002  -2.877106452939e-03
    X0000030  C0000003   1.678770500847e-03
    X0000030  C0000004  -1.678770500847e-03
    X0000030  C0000005   3.433713523922e-03
    X0000030  C0000006  -3.433713523922e-03
    X0000030  C0000007   3.803346857321e-03
    X0000030  C0000008  -3.803346857321e-03
    X0000031  C0000000   1.000000000000e+00
    X0000031  C0000001   2.877106452939e-03
    X0000031  C0000002  -2.877106452939e-03
    X0000031  C0000003   5.709943448694e-03
    X0000031  C0000004  -5.709943448694e-03
    X0000031  C0000005   2.212363600454e-03
    X0000031  C0000006  -2.212363600454e-03
    X0000031  C0000007   3.464095915865e-03
    X0000031  C0000008  -3.464095915865e-03
    X0000032  C0000000   1.000000000000e+00
    X0000032  C0000001   2.603096314564e-03
    X0000032  C0000002  -2.603096314564e-03
    X0000032  C0000003   4.912931983804e-03
    X0000032  C0000004  -4.912931983804e-03
    X0000032  C0000005   1.441169209500e-03
    X0000032  C0000006  -1.441169209500e-03
    X0000032  C0000007   1.067674989749e-03
    X0000032  C0000008  -1.067674989749e-03
    X0000033  C0000000   1.000000000000e+00
    X0000033  C0000001   2.740101383751e-03
    X0000033  C0000002  -2.740101383751e-03
    X0000033  C0000003   8.320027054499e-04
    X0000033  C0000004  -8.320027054499e-04
    X0000033  C0000005   1.433614773120e-03
    X0000033  C0000006  -1.433614773120e-03
    X0000033  C0000007   3.436623026112e-03
    X0000033  C0000008  -3.436623026112e-03
    X0000034  C0000000   1.000000000000e+00
    X0000034  C0000001   2.740101383751e-03
    X0000034  C0000002  -2.740101383751e-03
    X0000034  C0000003   2.989930714310e-03
    X0000034  C0000004  -2.989930714310e-03
    X0000034  C0000005   1.906779242581e-03
    X0000034  C0000006  -1.906779242581e-03
    X0000034  C0000007   1.670665672828e-03
    X0000034  C0000008  -1.670665672828e-03
    X0000035  C0000000   1.000000000000e+00
    X0000035  C0000001   2.603096314564e-03
    X0000035  C0000002  -2.603096314564e-03
    X0000035  C0000003   7.657721752689e-03
    X0000035  C0000004  -7.657721752689e-03
    X0000035  C0000005   2.123043499728e-03
    X0000035  C0000006  -2.123043499728e-03
    X0000035  C0000007   1.466895324836e-03
    X0000035  C0000008  -1.466895324836e-03
    X0000036  C0000000   1.000000000000e+00
    X0000036  C0000001   2.603096314564e-03
    X0000036  C0000002  -2.603096314564e-03
    X0000036  C0000003   1.481130670136e-02
    X0000036  C0000004  -1.481130670136e-02
    X0000036  C0000005   4.085616945638e-03
    X0000036  C0000006  -4.085616945638e-03
    X0000037  C0000000   1.000000000000e+00
    X0000037  C0000001   2.740101383751e-03
    X0000037  C0000002  -2.740101383751e-03
    X0000037  C0000003   1.173986460008e-02
    X0000037  C0000004  -1.173986460008e-02
    X0000037  C0000005   3.864810151582e-03
    X0000037  C0000006  -3.864810151582e-03
    X0000037  C0000007   2.337707436016e-03
    X0000037  C0000008  -2.337707436016e-03
    X0000038  C0000000   1.000000000000e+00
    X0000038  C0000001   2.603096314564e-03
    X0000038  C0000002  -2.603096314564e-03
    X0000038  C0000003   2.098463126059e-04
    X0000038  C0000004  -2.098463126059e-04
    X0000038  C0000005   3.115834691157e-03
    X0000038  C0000006  -3.115834691157e-03
    X0000038  C0000007   2.662986450685e-03
    X0000038  C0000008  -2.662986450685e-03
    X0000039  C0000000   1.000000000000e+00
    X0000039  C0000001   2.877106452939e-03
    X0000039  C0000002  -2.877106452939e-03
    X0000039  C0000003   8.999625715083e-04
    X0000039  C0000004  -8.999625715083e-04
    X0000039  C0000005   9.553646373377e-04
    X0000039  C0000006  -9.553646373377e-04
    X0000039  C0000007   4.833187753182e-03
    X0000039  C0000008  -4.833187753182e-03
    X0000040  C0000000   1.000000000000e+00
    X0000040  C0000001   2.740101383751e-03
    X0000040  C0000002  -2.740101383751e-03
    X0000040  C0000003   4.407480479995e-03
    X0000040  C0000004  -4.407480479995e-03
    X0000040  C0000005   6.951562731447e-04
    X0000040  C0000006  -6.951562731447e-04
    X0000040  C0000007   1.146482936353e-03
    X0000040  C0000008  -1.146482936353e-03
    X0000041  C0000000   1.000000000000e+00
    X0000041  C0000001   2.877106452939e-03
    X0000041  C0000002  -2.877106452939e-03
    X0000041  C0000003   9.829909197731e-04
    X0000041  C0000004  -9.829909197731e-04
    X0000041  C0000005   5.145854935071e-03
    X0000041  C0000006  -5.145854935071e-03
    X0000041  C0000007   4.313714654950e-03
    X0000041  C0000008  -4.313714654950e-03
    X0000042  C0000000   1.000000000000e+00
    X0000042  C0000001   2.877106452939e-03
    X0000042  C0000002  -2.877106452939e-03
    X0000042  C0000003   1.192705762400e-02
    X0000042  C0000004  -1.192705762400e-02
    X0000042  C0000005   1.165851972547e-03
    X0000042  C0000006  -1.165851972547e-03
    X0000042  C0000007   2.157014315416e-04
    X0000042  C0000008  -2.157014315416e-04
    X0000043  C0000000   1.000000000000e+00
    X0000043  C0000001   2.877106452939e-03
    X0000043  C0000002  -2.877106452939e-03
    X0000043  C0000003   1.220547058718e-02
    X0000043  C0000004  -1.220547058718e-02
    X0000043  C0000005   1.440774206290e-03
    X0000043  C0000006  -1.440774206290e-03
    X0000043  C0000007   1.018851739960e-04
    X0000043  C0000008  -1.018851739960e-04
    X0000044  C0000000   1.000000000000e+00
    X0000044  C0000001   2.740101383751e-03
    X0000044  C0000002  -2.740101383751e-03
    X0000044  C0000003   2.154590694009e-03
    X0000044  C0000004  -2.154590694009e-03
    X0000044  C0000005   3.417172764529e-03
    X0000044  C0000006  -3.417172764529e-03
    X0000044  C0000007   1.831107348982e-03
    X0000044  C0000008  -1.831107348982e-03
    X0000045  C0000000   1.000000000000e+00
    X0000045  C0000001   2.740101383751e-03
    X0000045  C0000002  -2.740101383751e-03
    X0000045  C0000003   8.746394309413e-03
    X0000045  C0000004  -8.746394309413e-03
    X0000045  C0000005   3.703155088135e-04
    X0000045  C0000006  -3.703155088135e-04
    X0000045  C0000007   9.260718665678e-04
    X0000045  C0000008  -9.260718665678e-04
    X0000046  C0000000   1.000000000000e+00
    X0000046  C0000001   2.603096314564e-03
    X0000046  C0000002  -2.603096314564e-03
    X0000046  C0000003   3.925996964662e-03
    X0000046  C0000004  -3.925996964662e-03
    X0000046  C0000005   9.445514244803e-04
    X0000046  C0000006  -9.445514244803e-04
    X0000046  C0000007   1.403943160318e-03
    X0000046  C0000008  -1.403943160318e-03
    X0000047  C0000000   1.000000000000e+00
    X0000047  C0000001   2.877106452939e-03
    X0000047  C0000002  -2.877106452939e-03
    X0000047  C0000003   8.018657410371e-03
    X0000047  C0000004  -8.018657410371e-03
    X0000047  C0000005   3.119044092233e-04
    X0000047  C0000006  -3.119044092233e-04
    X0000047  C0000007   2.611023442067e-03
    X0000047  C0000008  -2.611023442067e-03
    X0000048  C0000001  -1.000000000000e+00
    X0000048  C0000002  -1.000000000000e+00
    X0000048  C0000003  -1.000000000000e+00
    X0000048  C0000004  -1.000000000000e+00
    X0000048  C0000005  -1.000000000000e+00
    X0000048  C0000006  -1.000000000000e+00
    X0000048  C0000007  -1.000000000000e+00
    X0000048  C0000008  -1.000000000000e+00
    X0000048  OBJ        1.000000000000e+00
RHS
    RHS       C0000000   3.650000000000e+02
    RHS       C0000001   1.000000000000e+00
    RHS       C0000002  -1.000000000000e+00
    RHS       C0000003   1.000000000000e+00
    RHS       C0000004  -1.000000000000e+00
    RHS       C0000005   1.000000000000e+00
    RHS       C0000006  -1.000000000000e+00
    RHS       C0000007   1.000000000000e+00
    RHS       C0000008  -1.000000000000e+00
BOUNDS
 LO BND       X0000000   1.500000000000e+00
 UP BND       X0000000   6.000000000000e+00
 LO BND       X0000001   5.000000000000e+00
 UP BND       X0000001   2.000000000000e+01
 LO BND       X0000002   6.000000000000e+00
 UP BND       X0000002   2.400000000000e+01
 LO BND       X0000003   1.000000000000e+01
 UP BND       X0000003   4.000000000000e+01
 LO BND       X0000004   1.500000000000e+00
 UP BND       X0000004   6.000000000000e+00
 LO BND       X0000005   2.000000000000e+00
 UP BND       X0000005   8.000000000000e+00
 LO BND       X0000006   7.500000000000e+00
 UP BND       X0000006   3.000000000000e+01
 LO BND       X0000007   1.000000000000e+00
 UP BND       X0000007   4.000000000000e+00
 LO BND       X0000008   1.000000000000e+00
 UP BND       X0000008   4.000000000000e+00
 LO BND       X0000009   1.000000000000e+01
 UP BND       X0000009   4.000000000000e+01
 LO BND       X0000010   5.000000000000e-01
 UP BND       X0000010   2.000000000000e+00
 LO BND       X0000011   2.500000000000e+00
 UP BND       X0000011   1.000000000000e+01
 LO BND       X0000012   9.000000000000e+00
 UP BND       X0000012   3.600000000000e+01
 LO BND       X0000013   1.100000000000e+01
 UP BND       X0000013   4.400000000000e+01
 LO BND       X0000014   2.000000000000e+00
 UP BND       X0000014   8.000000000000e+00
 LO BND       X0000015   5.000000000000e-01
 UP BND       X0000015   2.000000000000e+00
 LO BND       X0000016   2.000000000000e+00
 UP BND       X0000016   8.000000000000e+00
 LO BND       X0000017   6.000000000000e+00
 UP BND       X0000017   2.400000000000e+01
 LO BND       X0000018   4.000000000000e+00
 UP BND       X0000018   1.600000000000e+01
 LO BND       X0000019   9.000000000000e+00
 UP BND       X0000019   3.600000000000e+01
 LO BND       X0000020   5.000000000000e-01
 UP BND       X0000020   2.000000000000e+00
 LO BND       X0000021   1.000000000000e+00
 UP BND       X0000021   4.000000000000e+00
 LO BND       X0000022   4.000000000000e+00
 UP BND       X0000022   1.600000000000e+01
 LO BND       X0000023   1.500000000000e+00
 UP BND       X0000023   6.000000000000e+00
 LO BND       X0000024   1.500000000000e+00
 UP BND       X0000024   6.000000000000e+00
 LO BND       X0000025   2.000000000000e+00
 UP BND       X0000025   8.000000000000e+00
 LO BND       X0000026   1.000000000000e+00
 UP BND       X0000026   4.000000000000e+00
 LO BND       X0000027   2.500000000000e+00
 UP BND       X0000027   1.000000000000e+01
 LO BND       X0000028   6.000000000000e+00
 UP BND       X0000028   2.400000000000e+01
 LO BND       X0000029   5.000000000000e-01
 UP BND       X0000029   2.000000000000e+00
 LO BND       X0000030   8.000000000000e+00
 UP BND       X0000030   3.200000000000e+01
 LO BND       X0000031   2.500000000000e+00
 UP BND       X0000031   1.000000000000e+01
 LO BND       X0000032   2.000000000000e+00
 UP BND       X0000032   8.000000000000e+00
 LO BND       X0000033   8.000000000000e+00
 UP BND       X0000033   3.200000000000e+01
 LO BND       X0000034   5.000000000000e+00
 UP BND       X0000034   2.000000000000e+01
 LO BND       X0000035   5.000000000000e-01
 UP BND       X0000035   2.000000000000e+00
 LO BND       X0000036   5.000000000000e-01
 UP BND       X0000036   2.000000000000e+00
 LO BND       X0000037   5.000000000000e-01
 UP BND       X0000037   2.000000000000e+00
 LO BND       X0000038   9.500000000000e+00
 UP BND       X0000038   3.800000000000e+01
 LO BND       X0000039   1.100000000000e+01
 UP BND       X0000039   4.400000000000e+01
 LO BND       X0000040   2.000000000000e+00
 UP BND       X0000040   8.000000000000e+00
 LO BND       X0000041   9.500000000000e+00
 UP BND       X0000041   3.800000000000e+01
 LO BND       X0000042   5.000000000000e-01
 UP BND       X0000042   2.000000000000e+00
 LO BND       X0000043   5.000000000000e-01
 UP BND       X0000043   2.000000000000e+00
 LO BND       X0000044   6.500000000000e+00
 UP BND       X0000044   2.600000000000e+01
 LO BND       X0000045   5.000000000000e-01
 UP BND       X0000045   2.000000000000e+00
 LO BND       X0000046   2.000000000000e+00
 UP BND       X0000046   8.000000000000e+00
 LO BND       X0000047   1.000000000000e+00
 UP BND       X0000047   4.000000000000e+00
ENDATA
