\* U11R06_energy_weights *\
Minimize
OBJ: w_001
Subject To
_C1: d_000 - 0.0833333333333 w_000 >= -1
_C10: d_004 + 0.0222222222222 w_004 >= 1
_C11: d_005 - 0.0909090909091 w_005 >= -1
_C12: d_005 + 0.0909090909091 w_005 >= 1
_C13: d_006 - 0.2 w_006 >= -1
_C14: d_006 + 0.2 w_006 >= 1
_C15: d_007 - 0.030303030303 w_007 >= -1
_C16: d_007 + 0.030303030303 w_007 >= 1
_C17: d_008 - 0.04 w_008 >= -1
_C18: d_008 + 0.04 w_008 >= 1
_C19: d_009 - 0.166666666667 w_009 >= -1
_C2: d_000 + 0.0833333333333 w_000 >= 1
_C20: d_009 + 0.166666666667 w_009 >= 1
_C21: d_010 - 0.2 w_010 >= -1
_C22: d_010 + 0.2 w_010 >= 1
_C23: d_011 - 0.166666666667 w_011 >= -1
_C24: d_011 + 0.166666666667 w_011 >= 1
_C25: d_012 - 0.0833333333333 w_012 >= -1
_C26: d_012 + 0.0833333333333 w_012 >= 1
_C27: d_013 - 0.0344827586207 w_013 >= -1
_C28: d_013 + 0.0344827586207 w_013 >= 1
_C29: d_014 - 0.333333333333 w_014 >= -1
_C3: d_001 - 0.1 w_001 >= -1
_C30: d_014 + 0.333333333333 w_014 >= 1
_C31: d_015 - 0.2 w_015 >= -1
_C32: d_015 + 0.2 w_015 >= 1
_C33: d_016 - 0.2 w_016 >= -1
_C34: d_016 + 0.2 w_016 >= 1
_C35: d_017 - 0.0243902439024 w_017 >= -1
_C36: d_017 + 0.0243902439024 w_017 >= 1
_C37: d_018 - 0.0344827586207 w_018 >= -1
_C38: d_018 + 0.0344827586207 w_018 >= 1
_C39: d_019 - 0.125 w_019 >= -1
_C4: d_001 + 0.1 w_001 >= 1
_C40: d_019 + 0.125 w_019 >= 1
_C41: d_020 - 0.333333333333 w_020 >= -1
_C42: d_020 + 0.333333333333 w_020 >= 1
_C43: d_021 - w_021 >= -1
_C44: d_021 + w_021 >= 1
_C45: d_022 - 0.0714285714286 w_022 >= -1
_C46: d_022 + 0.0714285714286 w_022 >= 1
_C47: d_023 - 0.0625 w_023 >= -1
_C48: d_023 + 0.0625 w_023 >= 1
_C49: 0.00274010138375 w_000 + 0.00260309631456 w_001 + 0.00274010138375 w_002
 + 0.00287710645294 w_003 + 0.00274010138375 w_004 + 0.00260309631456 w_005
 + 0.00287710645294 w_006 + 0.00274010138375 w_007 + 0.00287710645294 w_008
 + 0.00274010138375 w_009 + 0.00260309631456 w_010 + 0.00287710645294 w_011
 + 0.00260309631456 w_012 + 0.00260309631456 w_013 + 0.00260309631456 w_014
 + 0.00274010138375 w_015 + 0.00260309631456 w_016 + 0.00274010138375 w_017
 + 0.00260309631456 w_018 + 0.00260309631456 w_019 + 0.00287710645294 w_020
 + 0.00274010138375 w_021 + 0.00274010138375 w_022 + 0.00274010138375 w_023
 - worst_relative_error <= 1
_C5: d_002 - 0.025 w_002 >= -1
_C50: - 0.00274010138375 w_000 - 0.00260309631456 w_001
 - 0.00274010138375 w_002 - 0.00287710645294 w_003 - 0.00274010138375 w_004
 - 0.00260309631456 w_005 - 0.00287710645294 w_006 - 0.00274010138375 w_007
 - 0.00287710645294 w_008 - 0.00274010138375 w_009 - 0.00260309631456 w_010
 - 0.00287710645294 w_011 - 0.00260309631456 w_012 - 0.00260309631456 w_013
 - 0.00260309631456 w_014 - 0.00274010138375 w_015 - 0.00260309631456 w_016
 - 0.00274010138375 w_017 - 0.00260309631456 w_018 - 0.00260309631456 w_019
 - 0.00287710645294 w_020 - 0.00274010138375 w_021 - 0.00274010138375 w_022
 - 0.00274010138375 w_023 - worst_relative_error <= -1
_C51: 0.00385763257559 w_000 + 0.00369460980165 w_001 + 0.00030177416714 w_002
 + 0.0132699728939 w_003 + 0.000449425066612 w_004 + 0.00298204251557 w_005
 + 0.00500324174629 w_006 + 0.000772740084155 w_007 + 0.000111547220629 w_008
 + 0.0104733030487 w_009 + 0.0131501329515 w_010 + 0.0107274446312 w_011
 + 0.00450861123306 w_012 + 0.0148113067014 w_014 + 0.0101955980008 w_015
 + 0.00783621753185 w_016 + 0.00116189122194 w_017 + 0.000892074372769 w_018
 + 0.00558312548435 w_019 + 0.0191490069617 w_020 + 0.00874639430941 w_021
 + 0.00430341693509 w_022 + 0.000853037902087 w_023 - worst_relative_error
 <= 1
_C52: - 0.00385763257559 w_000 - 0.00369460980165 w_001
 - 0.00030177416714 w_002 - 0.0132699728939 w_003 - 0.000449425066612 w_004
 - 0.00298204251557 w_005 - 0.00500324174629 w_006 - 0.000772740084155 w_007
 - 0.000111547220629 w_008 - 0.0104733030487 w_009 - 0.0131501329515 w_010
 - 0.0107274446312 w_011 - 0.00450861123306 w_012 - 0.0148113067014 w_014
 - 0.0101955980008 w_015 - 0.00783621753185 w_016 - 0.00116189122194 w_017
 - 0.000892074372769 w_018 - 0.00558312548435 w_019 - 0.0191490069617 w_020
 - 0.00874639430941 w_021 - 0.00430341693509 w_022 - 0.000853037902087 w_023
 - worst_relative_error <= -1
_C53: 0.000885004690663 w_000 + 0.00456149706216 w_001
 + 0.00294637831432 w_002 + 0.00208433318521 w_003 + 0.00460583617242 w_004
 + 0.000593788574532 w_005 + 0.00300207376685 w_006 + 0.00357344590925 w_007
 + 0.00215666814793 w_008 + 0.00421384486249 w_009 + 0.00108853009431 w_010
 + 0.00107509998519 w_011 + 0.00450185157754 w_012 + 0.00180116525947 w_013
 + 0.00408561694564 w_014 + 0.000412037722806 w_015 + 0.00103006961932 w_016
 + 0.0010210339209 w_017 + 0.00404379598084 w_018 + 0.00253231620007 w_019
 + 0.00188085715696 w_020 + 0.000370315508814 w_021 + 0.00203604404286 w_022
 + 0.003109169012 w_023 - worst_relative_error <= 1
_C54: - 0.000885004690663 w_000 - 0.00456149706216 w_001
 - 0.00294637831432 w_002 - 0.00208433318521 w_003 - 0.00460583617242 w_004
 - 0.000593788574532 w_005 - 0.00300207376685 w_006 - 0.00357344590925 w_007
 - 0.00215666814793 w_008 - 0.00421384486249 w_009 - 0.00108853009431 w_010
 - 0.00107509998519 w_011 - 0.00450185157754 w_012 - 0.00180116525947 w_013
 - 0.00408561694564 w_014 - 0.000412037722806 w_015 - 0.00103006961932 w_016
 - 0.0010210339209 w_017 - 0.00404379598084 w_018 - 0.00253231620007 w_019
 - 0.00188085715696 w_020 - 0.000370315508814 w_021 - 0.00203604404286 w_022
 - 0.003109169012 w_023 - worst_relative_error <= -1
_C55: w_010 >= 4.999999995
_C56: w_010 <= 4.999999997
_C57: w_015 >= 4.99999999599
_C58: w_015 <= 4.99999999799
_C59: w_018 >= 14.5
_C6: d_002 + 0.025 w_002 >= 1
_C60: w_018 <= 14.500000001
_C61: w_002 >= 39.7965025575
_C62: w_002 <= 39.7965025595
_C63: w_008 >= 49.9999999987
_C64: w_008 <= 50
_C65: w_012 >= 11.9999999984
_C66: w_012 <= 12.0000000004
_C67: w_016 >= 4.99999999826
_C68: w_016 <= 5.00000000026
_C7: d_003 - w_003 >= -1
_C8: d_003 + w_003 >= 1
_C9: d_004 - 0.0222222222222 w_004 >= -1
primary_optimum_band: worst_relative_error <= 1e-09
secondary_optimum_band: d_000 + d_001 + d_002 + d_003 + d_004 + d_005 + d_006
 + d_007 + d_008 + d_009 + d_010 + d_011 + d_012 + d_013 + d_014 + d_015
 + d_016 + d_017 + d_018 + d_019 + d_020 + d_021 + d_022 + d_023
 <= 5.8604544192
total_days: w_000 + w_001 + w_002 + w_003 + w_004 + w_005 + w_006 + w_007
 + w_008 + w_009 + w_010 + w_011 + w_012 + w_013 + w_014 + w_015 + w_016
 + w_017 + w_018 + w_019 + w_020 + w_021 + w_022 + w_023 = 365
Bounds
 6 <= w_000 <= 24
 5 <= w_001 <= 20
 20 <= w_002 <= 80
 0.5 <= w_003 <= 2
 22.5 <= w_004 <= 90
 5.5 <= w_005 <= 22
 2.5 <= w_006 <= 10
 16.5 <= w_007 <= 66
 12.5 <= w_008 <= 50
 3 <= w_009 <= 12
 2.5 <= w_010 <= 10
 3 <= w_011 <= 12
 6 <= w_012 <= 24
 14.5 <= w_013 <= 58
 1.5 <= w_014 <= 6
 2.5 <= w_015 <= 10
 2.5 <= w_016 <= 10
 20.5 <= w_017 <= 82
 14.5 <= w_018 <= 58
 4 <= w_019 <= 16
 1.5 <= w_020 <= 6
 0.5 <= w_021 <= 2
 7 <= w_022 <= 28
 8 <= w_023 <= 32
End
