*SENSE:Minimize
NAME          independent_energy_feasibility
ROWS
 N  OBJ
 E  _C1
 L  _C2
 L  _C3
 L  _C4
 L  _C5
 L  _C6
 L  _C7
COLUMNS
    t         _C2       -1.000000000000e+00
    t         _C3       -1.000000000000e+00
    t         _C4       -1.000000000000e+00
    t         _C5       -1.000000000000e+00
    t         _C6       -1.000000000000e+00
    t         _C7       -1.000000000000e+00
    t         OBJ        1.000000000000e+00
    w_000     _C1        1.000000000000e+00
    w_000     _C2        2.740101383751e-03
    w_000     _C3       -2.740101383751e-03
    w_000     _C4        1.019559800081e-02
    w_000     _C5       -1.019559800081e-02
    w_000     _C6        4.120377228065e-04
    w_000     _C7       -4.120377228065e-04
    w_001     _C1        1.000000000000e+00
    w_001     _C2        2.740101383751e-03
    w_001     _C3       -2.740101383751e-03
    w_001     _C4        8.530379020870e-04
    w_001     _C5       -8.530379020870e-04
    w_001     _C6        3.109169011998e-03
    w_001     _C7       -3.109169011998e-03
    w_002     _C1        1.000000000000e+00
    w_002     _C2        2.740101383751e-03
    w_002     _C3       -2.740101383751e-03
    w_002     _C4        1.512511542811e-03
    w_002     _C5       -1.512511542811e-03
    w_002     _C6        7.553942625784e-04
    w_002     _C7       -7.553942625784e-04
    w_003     _C1        1.000000000000e+00
    w_003     _C2        2.603096314564e-03
    w_003     _C3       -2.603096314564e-03
    w_003     _C4        8.920743727694e-04
    w_003     _C5       -8.920743727694e-04
    w_003     _C6        4.043795980842e-03
    w_003     _C7       -4.043795980842e-03
    w_004     _C1        1.000000000000e+00
    w_004     _C2        2.603096314564e-03
    w_004     _C3       -2.603096314564e-03
    w_004     _C4        1.315013295154e-02
    w_004     _C5       -1.315013295154e-02
    w_004     _C6        1.088530094307e-03
    w_004     _C7       -1.088530094307e-03
    w_005     _C1        1.000000000000e+00
    w_005     _C2        2.740101383751e-03
    w_005     _C3       -2.740101383751e-03
    w_005     _C4        8.450687987457e-03
    w_005     _C5       -8.450687987457e-03
    w_005     _C6        1.304251222041e-03
    w_005     _C7       -1.304251222041e-03
    w_006     _C1        1.000000000000e+00
    w_006     _C2        2.877106452939e-03
    w_006     _C3       -2.877106452939e-03
    w_006     _C4        6.522933572568e-04
    w_006     _C5       -6.522933572568e-04
    w_006     _C6        3.180368340493e-03
    w_006     _C7       -3.180368340493e-03
    w_007     _C1        1.000000000000e+00
    w_007     _C2        2.740101383751e-03
    w_007     _C3       -2.740101383751e-03
    w_007     _C4        1.097400140713e-02
    w_007     _C5       -1.097400140713e-02
    w_007     _C6        2.466449414901e-03
    w_007     _C7       -2.466449414901e-03
    w_008     _C1        1.000000000000e+00
    w_008     _C2        2.877106452939e-03
    w_008     _C3       -2.877106452939e-03
    w_008     _C4        5.003241746289e-03
    w_008     _C5       -5.003241746289e-03
    w_008     _C6        3.002073766849e-03
    w_008     _C7       -3.002073766849e-03
    w_009     _C1        1.000000000000e+00
    w_009     _C2        2.740101383751e-03
    w_009     _C3       -2.740101383751e-03
    w_009     _C4        2.516133136209e-04
    w_009     _C5       -2.516133136209e-04
    w_009     _C6        2.672838591814e-03
    w_009     _C7       -2.672838591814e-03
    w_010     _C1        1.000000000000e+00
    w_010     _C2        2.740101383751e-03
    w_010     _C3       -2.740101383751e-03
    w_010     _C4        2.373821940499e-02
    w_010     _C5       -2.373821940499e-02
    w_010     _C6        4.145064928653e-04
    w_010     _C7       -4.145064928653e-04
    w_011     _C1        1.000000000000e+00
    w_011     _C2        2.603096314564e-03
    w_011     _C3       -2.603096314564e-03
    w_011     _C4        5.219964950104e-03
    w_011     _C5       -5.219964950104e-03
    w_011     _C6        3.741075396238e-03
    w_011     _C7       -3.741075396238e-03
    w_012     _C1        1.000000000000e+00
    w_012     _C2        2.603096314564e-03
    w_012     _C3       -2.603096314564e-03
    w_012     _C4        3.569915583126e-05
    w_012     _C5       -3.569915583126e-05
    w_012     _C6        4.670616698761e-03
    w_012     _C7       -4.670616698761e-03
    w_013     _C1        1.000000000000e+00
    w_013     _C2        2.603096314564e-03
    w_013     _C3       -2.603096314564e-03
    w_013     _C4        7.205566155744e-04
    w_013     _C5       -7.205566155744e-04
    w_013     _C6        1.888855971955e-03
    w_013     _C7       -1.888855971955e-03
    w_014     _C1        1.000000000000e+00
    w_014     _C2        2.740101383751e-03
    w_014     _C3       -2.740101383751e-03
    w_014     _C4        1.032312388042e-02
    w_014     _C5       -1.032312388042e-02
    w_014     _C6        4.939613884363e-03
    w_014     _C7       -4.939613884363e-03
    w_015     _C1        1.000000000000e+00
    w_015     _C2        2.740101383751e-03
    w_015     _C3       -2.740101383751e-03
    w_015     _C4        1.499627484871e-02
    w_015     _C5       -1.499627484871e-02
    w_015     _C6        3.140621142547e-03
    w_015     _C7       -3.140621142547e-03
    w_016     _C1        1.000000000000e+00
    w_016     _C2        2.740101383751e-03
    w_016     _C3       -2.740101383751e-03
    w_016     _C4        8.728696427627e-03
    w_016     _C5       -8.728696427627e-03
    w_016     _C6        9.282575420925e-04
    w_016     _C7       -9.282575420925e-04
    w_017     _C1        1.000000000000e+00
    w_017     _C2        2.603096314564e-03
    w_017     _C3       -2.603096314564e-03
    w_017     _C4        1.042759194833e-03
    w_017     _C5       -1.042759194833e-03
    w_017     _C6        3.091640744581e-03
    w_017     _C7       -3.091640744581e-03
    w_018     _C1        1.000000000000e+00
    w_018     _C2        2.603096314564e-03
    w_018     _C3       -2.603096314564e-03
    w_018     _C4        4.766899176381e-03
    w_018     _C5       -4.766899176381e-03
    w_018     _C6        5.007603811781e-03
    w_018     _C7       -5.007603811781e-03
    w_019     _C1        1.000000000000e+00
    w_019     _C2        2.877106452939e-03
    w_019     _C3       -2.877106452939e-03
    w_019     _C4        1.115472206286e-04
    w_019     _C5       -1.115472206286e-04
    w_019     _C6        2.156668147929e-03
    w_019     _C7       -2.156668147929e-03
    w_020     _C1        1.000000000000e+00
    w_020     _C2        2.603096314564e-03
    w_020     _C3       -2.603096314564e-03
    w_020     _C4        1.574919330527e-02
    w_020     _C5       -1.574919330527e-02
    w_020     _C6        3.295314274428e-04
    w_020     _C7       -3.295314274428e-04
    w_021     _C1        1.000000000000e+00
    w_021     _C2        2.877106452939e-03
    w_021     _C3       -2.877106452939e-03
    w_021     _C4        6.849484774209e-03
    w_021     _C5       -6.849484774209e-03
    w_021     _C6        2.343455290574e-03
    w_021     _C7       -2.343455290574e-03
    w_022     _C1        1.000000000000e+00
    w_022     _C2        2.740101383751e-03
    w_022     _C3       -2.740101383751e-03
    w_022     _C4        4.093772883993e-03
    w_022     _C5       -4.093772883993e-03
    w_022     _C6        3.749962968449e-03
    w_022     _C7       -3.749962968449e-03
    w_023     _C1        1.000000000000e+00
    w_023     _C2        2.877106452939e-03
    w_023     _C3       -2.877106452939e-03
    w_023     _C4        7.137808551192e-03
    w_023     _C5       -7.137808551192e-03
    w_023     _C6        4.614378116822e-03
    w_023     _C7       -4.614378116822e-03
    w_024     _C1        1.000000000000e+00
    w_024     _C2        2.877106452939e-03
    w_024     _C3       -2.877106452939e-03
    w_024     _C4        1.072744463117e-02
    w_024     _C5       -1.072744463117e-02
    w_024     _C6        1.075099985187e-03
    w_024     _C7       -1.075099985187e-03
    w_025     _C1        1.000000000000e+00
    w_025     _C2        2.603096314564e-03
    w_025     _C3       -2.603096314564e-03
    w_025     _C4        7.119503884887e-03
    w_025     _C5       -7.119503884887e-03
    w_025     _C6        1.840418703402e-03
    w_025     _C7       -1.840418703402e-03
    w_026     _C1        1.000000000000e+00
    w_026     _C2        2.877106452939e-03
    w_026     _C3       -2.877106452939e-03
    w_026     _C4        1.571733711805e-02
    w_026     _C5       -1.571733711805e-02
    w_026     _C6        1.279316644448e-03
    w_026     _C7       -1.279316644448e-03
    w_027     _C1        1.000000000000e+00
    w_027     _C2        2.603096314564e-03
    w_027     _C3       -2.603096314564e-03
    w_027     _C4        1.616372826207e-03
    w_027     _C5       -1.616372826207e-03
    w_027     _C6        1.366365476719e-03
    w_027     _C7       -1.366365476719e-03
    w_028     _C1        1.000000000000e+00
    w_028     _C2        2.740101383751e-03
    w_028     _C3       -2.740101383751e-03
    w_028     _C4        1.586943777066e-03
    w_028     _C5       -1.586943777066e-03
    w_028     _C6        2.290672986718e-03
    w_028     _C7       -2.290672986718e-03
    w_029     _C1        1.000000000000e+00
    w_029     _C2        2.877106452939e-03
    w_029     _C3       -2.877106452939e-03
    w_029     _C4        1.326997289392e-02
    w_029     _C5       -1.326997289392e-02
    w_029     _C6        2.084333185207e-03
    w_029     _C7       -2.084333185207e-03
    w_030     _C1        1.000000000000e+00
    w_030     _C2        2.740101383751e-03
    w_030     _C3       -2.740101383751e-03
    w_030     _C4        1.631946962179e-03
    w_030     _C5       -1.631946962179e-03
    w_030     _C6        4.059497358416e-03
    w_030     _C7       -4.059497358416e-03
    w_031     _C1        1.000000000000e+00
    w_031     _C2        2.877106452939e-03
    w_031     _C3       -2.877106452939e-03
    w_031     _C4        4.600134564580e-03
    w_031     _C5       -4.600134564580e-03
    w_031     _C6        2.013133856713e-03
    w_031     _C7       -2.013133856713e-03
    w_032     _C1        1.000000000000e+00
    w_032     _C2        2.740101383751e-03
    w_032     _C3       -2.740101383751e-03
    w_032     _C4        4.929112904294e-03
    w_032     _C5       -4.929112904294e-03
    w_032     _C6        9.672147336197e-04
    w_032     _C7       -9.672147336197e-04
    w_033     _C1        1.000000000000e+00
    w_033     _C2        2.740101383751e-03
    w_033     _C3       -2.740101383751e-03
    w_033     _C4        2.754801713438e-04
    w_033     _C5       -2.754801713438e-04
    w_033     _C6        1.144966177850e-03
    w_033     _C7       -1.144966177850e-03
    w_034     _C1        1.000000000000e+00
    w_034     _C2        2.740101383751e-03
    w_034     _C3       -2.740101383751e-03
    w_034     _C4        2.989930714310e-03
    w_034     _C5       -2.989930714310e-03
    w_034     _C6        1.906779242581e-03
    w_034     _C7       -1.906779242581e-03
    w_035     _C1        1.000000000000e+00
    w_035     _C2        2.603096314564e-03
    w_035     _C3       -2.603096314564e-03
    w_035     _C4        7.657721752689e-03
    w_035     _C5       -7.657721752689e-03
    w_035     _C6        2.123043499728e-03
    w_035     _C7       -2.123043499728e-03
    w_036     _C1        1.000000000000e+00
    w_036     _C2        2.603096314564e-03
    w_036     _C3       -2.603096314564e-03
    w_036     _C4        1.481130670136e-02
    w_036     _C5       -1.481130670136e-02
    w_036     _C6        4.085616945638e-03
    w_036     _C7       -4.085616945638e-03
    w_037     _C1        1.000000000000e+00
    w_037     _C2        2.740101383751e-03
    w_037     _C3       -2.740101383751e-03
    w_037     _C4        1.173986460008e-02
    w_037     _C5       -1.173986460008e-02
    w_037     _C6        3.864810151582e-03
    w_037     _C7       -3.864810151582e-03
    w_038     _C1        1.000000000000e+00
    w_038     _C2        2.603096314564e-03
    w_038     _C3       -2.603096314564e-03
    w_038     _C4        6.020313729845e-04
    w_038     _C5       -6.020313729845e-04
    w_038     _C6        3.244556362020e-03
    w_038     _C7       -3.244556362020e-03
    w_039     _C1        1.000000000000e+00
    w_039     _C2        2.877106452939e-03
    w_039     _C3       -2.877106452939e-03
    w_039     _C4        8.999625715083e-04
    w_039     _C5       -8.999625715083e-04
    w_039     _C6        9.553646373377e-04
    w_039     _C7       -9.553646373377e-04
    w_040     _C1        1.000000000000e+00
    w_040     _C2        2.740101383751e-03
    w_040     _C3       -2.740101383751e-03
    w_040     _C4        3.268040285233e-03
    w_040     _C5       -3.268040285233e-03
    w_040     _C6        4.491680244902e-04
    w_040     _C7       -4.491680244902e-04
    w_041     _C1        1.000000000000e+00
    w_041     _C2        2.877106452939e-03
    w_041     _C3       -2.877106452939e-03
    w_041     _C4        1.183229810838e-03
    w_041     _C5       -1.183229810838e-03
    w_041     _C6        4.795635214536e-03
    w_041     _C7       -4.795635214536e-03
    w_042     _C1        1.000000000000e+00
    w_042     _C2        2.877106452939e-03
    w_042     _C3       -2.877106452939e-03
    w_042     _C4        1.192705762400e-02
    w_042     _C5       -1.192705762400e-02
    w_042     _C6        1.165851972547e-03
    w_042     _C7       -1.165851972547e-03
    w_043     _C1        1.000000000000e+00
    w_043     _C2        2.877106452939e-03
    w_043     _C3       -2.877106452939e-03
    w_043     _C4        1.220547058718e-02
    w_043     _C5       -1.220547058718e-02
    w_043     _C6        1.440774206290e-03
    w_043     _C7       -1.440774206290e-03
    w_044     _C1        1.000000000000e+00
    w_044     _C2        2.740101383751e-03
    w_044     _C3       -2.740101383751e-03
    w_044     _C4        2.797782283490e-03
    w_044     _C5       -2.797782283490e-03
    w_044     _C6        3.760578679702e-03
    w_044     _C7       -3.760578679702e-03
    w_045     _C1        1.000000000000e+00
    w_045     _C2        2.740101383751e-03
    w_045     _C3       -2.740101383751e-03
    w_045     _C4        8.746394309413e-03
    w_045     _C5       -8.746394309413e-03
    w_045     _C6        3.703155088135e-04
    w_045     _C7       -3.703155088135e-04
    w_046     _C1        1.000000000000e+00
    w_046     _C2        2.603096314564e-03
    w_046     _C3       -2.603096314564e-03
    w_046     _C4        4.478373137892e-03
    w_046     _C5       -4.478373137892e-03
    w_046     _C6        4.603762405570e-04
    w_046     _C7       -4.603762405570e-04
    w_047     _C1        1.000000000000e+00
    w_047     _C2        2.877106452939e-03
    w_047     _C3       -2.877106452939e-03
    w_047     _C4        8.018657410371e-03
    w_047     _C5       -8.018657410371e-03
    w_047     _C6        3.119044092233e-04
    w_047     _C7       -3.119044092233e-04
RHS
    RHS       _C1        3.650000000000e+02
    RHS       _C2        1.000000000000e+00
    RHS       _C3       -1.000000000000e+00
    RHS       _C4        1.000000000000e+00
    RHS       _C5       -1.000000000000e+00
    RHS       _C6        1.000000000000e+00
    RHS       _C7       -1.000000000000e+00
BOUNDS
 LO BND       w_000      1.500000000000e+00
 UP BND       w_000      6.000000000000e+00
 LO BND       w_001      5.000000000000e+00
 UP BND       w_001      2.000000000000e+01
 LO BND       w_002      6.000000000000e+00
 UP BND       w_002      2.400000000000e+01
 LO BND       w_003      1.000000000000e+01
 UP BND       w_003      4.000000000000e+01
 LO BND       w_004      1.500000000000e+00
 UP BND       w_004      6.000000000000e+00
 LO BND       w_005      2.000000000000e+00
 UP BND       w_005      8.000000000000e+00
 LO BND       w_006      7.500000000000e+00
 UP BND       w_006      3.000000000000e+01
 LO BND       w_007      1.000000000000e+00
 UP BND       w_007      4.000000000000e+00
 LO BND       w_008      1.000000000000e+00
 UP BND       w_008      4.000000000000e+00
 LO BND       w_009      1.000000000000e+01
 UP BND       w_009      4.000000000000e+01
 LO BND       w_010      5.000000000000e-01
 UP BND       w_010      2.000000000000e+00
 LO BND       w_011      2.500000000000e+00
 UP BND       w_011      1.000000000000e+01
 LO BND       w_012      9.000000000000e+00
 UP BND       w_012      3.600000000000e+01
 LO BND       w_013      1.100000000000e+01
 UP BND       w_013      4.400000000000e+01
 LO BND       w_014      2.000000000000e+00
 UP BND       w_014      8.000000000000e+00
 LO BND       w_015      5.000000000000e-01
 UP BND       w_015      2.000000000000e+00
 LO BND       w_016      2.000000000000e+00
 UP BND       w_016      8.000000000000e+00
 LO BND       w_017      6.000000000000e+00
 UP BND       w_017      2.400000000000e+01
 LO BND       w_018      4.000000000000e+00
 UP BND       w_018      1.600000000000e+01
 LO BND       w_019      9.000000000000e+00
 UP BND       w_019      3.600000000000e+01
 LO BND       w_020      5.000000000000e-01
 UP BND       w_020      2.000000000000e+00
 LO BND       w_021      1.000000000000e+00
 UP BND       w_021      4.000000000000e+00
 LO BND       w_022      4.000000000000e+00
 UP BND       w_022      1.600000000000e+01
 LO BND       w_023      1.500000000000e+00
 UP BND       w_023      6.000000000000e+00
 LO BND       w_024      1.500000000000e+00
 UP BND       w_024      6.000000000000e+00
 LO BND       w_025      2.000000000000e+00
 UP BND       w_025      8.000000000000e+00
 LO BND       w_026      1.000000000000e+00
 UP BND       w_026      4.000000000000e+00
 LO BND       w_027      2.500000000000e+00
 UP BND       w_027      1.000000000000e+01
 LO BND       w_028      6.000000000000e+00
 UP BND       w_028      2.400000000000e+01
 LO BND       w_029      5.000000000000e-01
 UP BND       w_029      2.000000000000e+00
 LO BND       w_030      8.000000000000e+00
 UP BND       w_030      3.200000000000e+01
 LO BND       w_031      2.500000000000e+00
 UP BND       w_031      1.000000000000e+01
 LO BND       w_032      2.000000000000e+00
 UP BND       w_032      8.000000000000e+00
 LO BND       w_033      8.000000000000e+00
 UP BND       w_033      3.200000000000e+01
 LO BND       w_034      5.000000000000e+00
 UP BND       w_034      2.000000000000e+01
 LO BND       w_035      5.000000000000e-01
 UP BND       w_035      2.000000000000e+00
 LO BND       w_036      5.000000000000e-01
 UP BND       w_036      2.000000000000e+00
 LO BND       w_037      5.000000000000e-01
 UP BND       w_037      2.000000000000e+00
 LO BND       w_038      9.500000000000e+00
 UP BND       w_038      3.800000000000e+01
 LO BND       w_039      1.100000000000e+01
 UP BND       w_039      4.400000000000e+01
 LO BND       w_040      2.000000000000e+00
 UP BND       w_040      8.000000000000e+00
 LO BND       w_041      9.500000000000e+00
 UP BND       w_041      3.800000000000e+01
 LO BND       w_042      5.000000000000e-01
 UP BND       w_042      2.000000000000e+00
 LO BND       w_043      5.000000000000e-01
 UP BND       w_043      2.000000000000e+00
 LO BND       w_044      6.500000000000e+00
 UP BND       w_044      2.600000000000e+01
 LO BND       w_045      5.000000000000e-01
 UP BND       w_045      2.000000000000e+00
 LO BND       w_046      2.000000000000e+00
 UP BND       w_046      8.000000000000e+00
 LO BND       w_047      1.000000000000e+00
 UP BND       w_047      4.000000000000e+00
ENDATA
