\* independent_energy_feasibility *\
Minimize
OBJ: t
Subject To
_C1: w_000 + w_001 + w_002 + w_003 + w_004 + w_005 + w_006 + w_007 + w_008
 + w_009 + w_010 + w_011 + w_012 + w_013 + w_014 + w_015 + w_016 + w_017
 + w_018 + w_019 + w_020 + w_021 + w_022 + w_023 + w_024 + w_025 + w_026
 + w_027 + w_028 + w_029 + w_030 + w_031 + w_032 + w_033 + w_034 + w_035
 + w_036 + w_037 + w_038 + w_039 + w_040 + w_041 + w_042 + w_043 + w_044
 + w_045 + w_046 + w_047 = 365
_C2: - t + 0.00274010138375 w_000 + 0.00274010138375 w_001
 + 0.00274010138375 w_002 + 0.00260309631456 w_003 + 0.00260309631456 w_004
 + 0.00274010138375 w_005 + 0.00287710645294 w_006 + 0.00274010138375 w_007
 + 0.00287710645294 w_008 + 0.00274010138375 w_009 + 0.00274010138375 w_010
 + 0.00260309631456 w_011 + 0.00260309631456 w_012 + 0.00260309631456 w_013
 + 0.00274010138375 w_014 + 0.00274010138375 w_015 + 0.00274010138375 w_016
 + 0.00260309631456 w_017 + 0.00260309631456 w_018 + 0.00287710645294 w_019
 + 0.00260309631456 w_020 + 0.00287710645294 w_021 + 0.00274010138375 w_022
 + 0.00287710645294 w_023 + 0.00287710645294 w_024 + 0.00260309631456 w_025
 + 0.00287710645294 w_026 + 0.00260309631456 w_027 + 0.00274010138375 w_028
 + 0.00287710645294 w_029 + 0.00274010138375 w_030 + 0.00287710645294 w_031
 + 0.00274010138375 w_032 + 0.00274010138375 w_033 + 0.00274010138375 w_034
 + 0.00260309631456 w_035 + 0.00260309631456 w_036 + 0.00274010138375 w_037
 + 0.00260309631456 w_038 + 0.00287710645294 w_039 + 0.00274010138375 w_040
 + 0.00287710645294 w_041 + 0.00287710645294 w_042 + 0.00287710645294 w_043
 + 0.00274010138375 w_044 + 0.00274010138375 w_045 + 0.00260309631456 w_046
 + 0.00287710645294 w_047 <= 1
_C3: - t - 0.00274010138375 w_000 - 0.00274010138375 w_001
 - 0.00274010138375 w_002 - 0.00260309631456 w_003 - 0.00260309631456 w_004
 - 0.00274010138375 w_005 - 0.00287710645294 w_006 - 0.00274010138375 w_007
 - 0.00287710645294 w_008 - 0.00274010138375 w_009 - 0.00274010138375 w_010
 - 0.00260309631456 w_011 - 0.00260309631456 w_012 - 0.00260309631456 w_013
 - 0.00274010138375 w_014 - 0.00274010138375 w_015 - 0.00274010138375 w_016
 - 0.00260309631456 w_017 - 0.00260309631456 w_018 - 0.00287710645294 w_019
 - 0.00260309631456 w_020 - 0.00287710645294 w_021 - 0.00274010138375 w_022
 - 0.00287710645294 w_023 - 0.00287710645294 w_024 - 0.00260309631456 w_025
 - 0.00287710645294 w_026 - 0.00260309631456 w_027 - 0.00274010138375 w_028
 - 0.00287710645294 w_029 - 0.00274010138375 w_030 - 0.00287710645294 w_031
 - 0.00274010138375 w_032 - 0.00274010138375 w_033 - 0.00274010138375 w_034
 - 0.00260309631456 w_035 - 0.00260309631456 w_036 - 0.00274010138375 w_037
 - 0.00260309631456 w_038 - 0.00287710645294 w_039 - 0.00274010138375 w_040
 - 0.00287710645294 w_041 - 0.00287710645294 w_042 - 0.00287710645294 w_043
 - 0.00274010138375 w_044 - 0.00274010138375 w_045 - 0.00260309631456 w_046
 - 0.00287710645294 w_047 <= -1
_C4: - t + 0.0101955980008 w_000 + 0.000853037902087 w_001
 + 0.00151251154281 w_002 + 0.000892074372769 w_003 + 0.0131501329515 w_004
 + 0.00845068798746 w_005 + 0.000652293357257 w_006 + 0.0109740014071 w_007
 + 0.00500324174629 w_008 + 0.000251613313621 w_009 + 0.023738219405 w_010
 + 0.0052199649501 w_011 + 3.56991558313e-05 w_012 + 0.000720556615574 w_013
 + 0.0103231238804 w_014 + 0.0149962748487 w_015 + 0.00872869642763 w_016
 + 0.00104275919483 w_017 + 0.00476689917638 w_018 + 0.000111547220629 w_019
 + 0.0157491933053 w_020 + 0.00684948477421 w_021 + 0.00409377288399 w_022
 + 0.00713780855119 w_023 + 0.0107274446312 w_024 + 0.00711950388489 w_025
 + 0.0157173371181 w_026 + 0.00161637282621 w_027 + 0.00158694377707 w_028
 + 0.0132699728939 w_029 + 0.00163194696218 w_030 + 0.00460013456458 w_031
 + 0.00492911290429 w_032 + 0.000275480171344 w_033 + 0.00298993071431 w_034
 + 0.00765772175269 w_035 + 0.0148113067014 w_036 + 0.0117398646001 w_037
 + 0.000602031372984 w_038 + 0.000899962571508 w_039 + 0.00326804028523 w_040
 + 0.00118322981084 w_041 + 0.011927057624 w_042 + 0.0122054705872 w_043
 + 0.00279778228349 w_044 + 0.00874639430941 w_045 + 0.00447837313789 w_046
 + 0.00801865741037 w_047 <= 1
_C5: - t - 0.0101955980008 w_000 - 0.000853037902087 w_001
 - 0.00151251154281 w_002 - 0.000892074372769 w_003 - 0.0131501329515 w_004
 - 0.00845068798746 w_005 - 0.000652293357257 w_006 - 0.0109740014071 w_007
 - 0.00500324174629 w_008 - 0.000251613313621 w_009 - 0.023738219405 w_010
 - 0.0052199649501 w_011 - 3.56991558313e-05 w_012 - 0.000720556615574 w_013
 - 0.0103231238804 w_014 - 0.0149962748487 w_015 - 0.00872869642763 w_016
 - 0.00104275919483 w_017 - 0.00476689917638 w_018 - 0.000111547220629 w_019
 - 0.0157491933053 w_020 - 0.00684948477421 w_021 - 0.00409377288399 w_022
 - 0.00713780855119 w_023 - 0.0107274446312 w_024 - 0.00711950388489 w_025
 - 0.0157173371181 w_026 - 0.00161637282621 w_027 - 0.00158694377707 w_028
 - 0.0132699728939 w_029 - 0.00163194696218 w_030 - 0.00460013456458 w_031
 - 0.00492911290429 w_032 - 0.000275480171344 w_033 - 0.00298993071431 w_034
 - 0.00765772175269 w_035 - 0.0148113067014 w_036 - 0.0117398646001 w_037
 - 0.000602031372984 w_038 - 0.000899962571508 w_039 - 0.00326804028523 w_040
 - 0.00118322981084 w_041 - 0.011927057624 w_042 - 0.0122054705872 w_043
 - 0.00279778228349 w_044 - 0.00874639430941 w_045 - 0.00447837313789 w_046
 - 0.00801865741037 w_047 <= -1
_C6: - t + 0.000412037722806 w_000 + 0.003109169012 w_001
 + 0.000755394262578 w_002 + 0.00404379598084 w_003 + 0.00108853009431 w_004
 + 0.00130425122204 w_005 + 0.00318036834049 w_006 + 0.0024664494149 w_007
 + 0.00300207376685 w_008 + 0.00267283859181 w_009 + 0.000414506492865 w_010
 + 0.00374107539624 w_011 + 0.00467061669876 w_012 + 0.00188885597195 w_013
 + 0.00493961388436 w_014 + 0.00314062114255 w_015 + 0.000928257542093 w_016
 + 0.00309164074458 w_017 + 0.00500760381178 w_018 + 0.00215666814793 w_019
 + 0.000329531427443 w_020 + 0.00234345529057 w_021 + 0.00374996296845 w_022
 + 0.00461437811682 w_023 + 0.00107509998519 w_024 + 0.0018404187034 w_025
 + 0.00127931664445 w_026 + 0.00136636547672 w_027 + 0.00229067298672 w_028
 + 0.00208433318521 w_029 + 0.00405949735842 w_030 + 0.00201313385671 w_031
 + 0.00096721473362 w_032 + 0.00114496617785 w_033 + 0.00190677924258 w_034
 + 0.00212304349973 w_035 + 0.00408561694564 w_036 + 0.00386481015158 w_037
 + 0.00324455636202 w_038 + 0.000955364637338 w_039 + 0.00044916802449 w_040
 + 0.00479563521454 w_041 + 0.00116585197255 w_042 + 0.00144077420629 w_043
 + 0.0037605786797 w_044 + 0.000370315508814 w_045 + 0.000460376240557 w_046
 + 0.000311904409223 w_047 <= 1
_C7: - t - 0.000412037722806 w_000 - 0.003109169012 w_001
 - 0.000755394262578 w_002 - 0.00404379598084 w_003 - 0.00108853009431 w_004
 - 0.00130425122204 w_005 - 0.00318036834049 w_006 - 0.0024664494149 w_007
 - 0.00300207376685 w_008 - 0.00267283859181 w_009 - 0.000414506492865 w_010
 - 0.00374107539624 w_011 - 0.00467061669876 w_012 - 0.00188885597195 w_013
 - 0.00493961388436 w_014 - 0.00314062114255 w_015 - 0.000928257542093 w_016
 - 0.00309164074458 w_017 - 0.00500760381178 w_018 - 0.00215666814793 w_019
 - 0.000329531427443 w_020 - 0.00234345529057 w_021 - 0.00374996296845 w_022
 - 0.00461437811682 w_023 - 0.00107509998519 w_024 - 0.0018404187034 w_025
 - 0.00127931664445 w_026 - 0.00136636547672 w_027 - 0.00229067298672 w_028
 - 0.00208433318521 w_029 - 0.00405949735842 w_030 - 0.00201313385671 w_031
 - 0.00096721473362 w_032 - 0.00114496617785 w_033 - 0.00190677924258 w_034
 - 0.00212304349973 w_035 - 0.00408561694564 w_036 - 0.00386481015158 w_037
 - 0.00324455636202 w_038 - 0.000955364637338 w_039 - 0.00044916802449 w_040
 - 0.00479563521454 w_041 - 0.00116585197255 w_042 - 0.00144077420629 w_043
 - 0.0037605786797 w_044 - 0.000370315508814 w_045 - 0.000460376240557 w_046
 - 0.000311904409223 w_047 <= -1
Bounds
 1.5 <= w_000 <= 6
 5 <= w_001 <= 20
 6 <= w_002 <= 24
 10 <= w_003 <= 40
 1.5 <= w_004 <= 6
 2 <= w_005 <= 8
 7.5 <= w_006 <= 30
 1 <= w_007 <= 4
 1 <= w_008 <= 4
 10 <= w_009 <= 40
 0.5 <= w_010 <= 2
 2.5 <= w_011 <= 10
 9 <= w_012 <= 36
 11 <= w_013 <= 44
 2 <= w_014 <= 8
 0.5 <= w_015 <= 2
 2 <= w_016 <= 8
 6 <= w_017 <= 24
 4 <= w_018 <= 16
 9 <= w_019 <= 36
 0.5 <= w_020 <= 2
 1 <= w_021 <= 4
 4 <= w_022 <= 16
 1.5 <= w_023 <= 6
 1.5 <= w_024 <= 6
 2 <= w_025 <= 8
 1 <= w_026 <= 4
 2.5 <= w_027 <= 10
 6 <= w_028 <= 24
 0.5 <= w_029 <= 2
 8 <= w_030 <= 32
 2.5 <= w_031 <= 10
 2 <= w_032 <= 8
 8 <= w_033 <= 32
 5 <= w_034 <= 20
 0.5 <= w_035 <= 2
 0.5 <= w_036 <= 2
 0.5 <= w_037 <= 2
 9.5 <= w_038 <= 38
 11 <= w_039 <= 44
 2 <= w_040 <= 8
 9.5 <= w_041 <= 38
 0.5 <= w_042 <= 2
 0.5 <= w_043 <= 2
 6.5 <= w_044 <= 26
 0.5 <= w_045 <= 2
 2 <= w_046 <= 8
 1 <= w_047 <= 4
End
