\* U11R08_energy_weights *\
Minimize
OBJ: w_000
Subject To
_C1: d_000 - 0.25 w_000 >= -1
_C10: d_004 + 0.0909090909091 w_004 >= 1
_C11: d_005 - 0.015873015873 w_005 >= -1
_C12: d_005 + 0.015873015873 w_005 >= 1
_C13: d_006 - 0.02 w_006 >= -1
_C14: d_006 + 0.02 w_006 >= 1
_C15: d_007 - 0.0909090909091 w_007 >= -1
_C16: d_007 + 0.0909090909091 w_007 >= 1
_C17: d_008 - 0.0138888888889 w_008 >= -1
_C18: d_008 + 0.0138888888889 w_008 >= 1
_C19: d_009 - 0.125 w_009 >= -1
_C2: d_000 + 0.25 w_000 >= 1
_C20: d_009 + 0.125 w_009 >= 1
_C21: d_010 - 0.0625 w_010 >= -1
_C22: d_010 + 0.0625 w_010 >= 1
_C23: d_011 - 0.0434782608696 w_011 >= -1
_C24: d_011 + 0.0434782608696 w_011 >= 1
_C25: 0.00287710645294 w_000 + 0.00274010138375 w_001 + 0.00274010138375 w_002
 + 0.00274010138375 w_003 + 0.00260309631456 w_004 + 0.00274010138375 w_005
 + 0.00274010138375 w_006 + 0.00274010138375 w_007 + 0.00274010138375 w_008
 + 0.00287710645294 w_009 + 0.00274010138375 w_010 + 0.00260309631456 w_011
 - worst_relative_error <= 1
_C26: - 0.00287710645294 w_000 - 0.00274010138375 w_001
 - 0.00274010138375 w_002 - 0.00274010138375 w_003 - 0.00260309631456 w_004
 - 0.00274010138375 w_005 - 0.00274010138375 w_006 - 0.00274010138375 w_007
 - 0.00274010138375 w_008 - 0.00287710645294 w_009 - 0.00274010138375 w_010
 - 0.00260309631456 w_011 - worst_relative_error <= -1
_C27: 0.0157173371181 w_000 + 0.000310774804163 w_001 + 0.00163194696218 w_002
 + 0.0109740014071 w_003 + 0.0108391941133 w_004 + 0.00116189122194 w_005
 + 0.000449425066612 w_006 + 0.0104733030487 w_007 + 0.00030177416714 w_008
 + 0.0107274446312 w_009 + 0.00535092927532 w_010 + 0.0036005582013 w_011
 - worst_relative_error <= 1
_C28: - 0.0157173371181 w_000 - 0.000310774804163 w_001
 - 0.00163194696218 w_002 - 0.0109740014071 w_003 - 0.0108391941133 w_004
 - 0.00116189122194 w_005 - 0.000449425066612 w_006 - 0.0104733030487 w_007
 - 0.00030177416714 w_008 - 0.0107274446312 w_009 - 0.00535092927532 w_010
 - 0.0036005582013 w_011 - worst_relative_error <= -1
_C29: 0.00127931664445 w_000 + 0.00181642225843 w_001 + 0.00405949735842 w_002
 + 0.0024664494149 w_003 + 0.000706018861403 w_004 + 0.0010210339209 w_005
 + 0.00460583617242 w_006 + 0.00421384486249 w_007 + 0.00294637831432 w_008
 + 0.00107509998519 w_009 + 0.0038741421024 w_010 + 0.00222465807535 w_011
 - worst_relative_error <= 1
_C3: d_001 - 0.0185185185185 w_001 >= -1
_C30: - 0.00127931664445 w_000 - 0.00181642225843 w_001
 - 0.00405949735842 w_002 - 0.0024664494149 w_003 - 0.000706018861403 w_004
 - 0.0010210339209 w_005 - 0.00460583617242 w_006 - 0.00421384486249 w_007
 - 0.00294637831432 w_008 - 0.00107509998519 w_009 - 0.0038741421024 w_010
 - 0.00222465807535 w_011 - worst_relative_error <= -1
_C31: w_004 >= 10.9999792803
_C32: w_004 <= 10.9999812803
_C33: w_011 >= 11.5
_C34: w_011 <= 11.500001
_C35: w_001 >= 47.2610266224
_C36: w_001 <= 47.2610286224
_C37: w_008 >= 71.5089208457
_C38: w_008 <= 71.5089228457
_C4: d_001 + 0.0185185185185 w_001 >= 1
_C5: d_002 - 0.0217391304348 w_002 >= -1
_C6: d_002 + 0.0217391304348 w_002 >= 1
_C7: d_003 - 0.142857142857 w_003 >= -1
_C8: d_003 + 0.142857142857 w_003 >= 1
_C9: d_004 - 0.0909090909091 w_004 >= -1
primary_optimum_band: worst_relative_error <= 1e-06
secondary_optimum_band: d_000 + d_001 + d_002 + d_003 + d_004 + d_005 + d_006
 + d_007 + d_008 + d_009 + d_010 + d_011 <= 2.84455091216
total_days: w_000 + w_001 + w_002 + w_003 + w_004 + w_005 + w_006 + w_007
 + w_008 + w_009 + w_010 + w_011 = 365
Bounds
 2 <= w_000 <= 8
 27 <= w_001 <= 108
 23 <= w_002 <= 92
 3.5 <= w_003 <= 14
 5.5 <= w_004 <= 22
 31.5 <= w_005 <= 126
 25 <= w_006 <= 100
 5.5 <= w_007 <= 22
 36 <= w_008 <= 144
 4 <= w_009 <= 16
 8 <= w_010 <= 32
 11.5 <= w_011 <= 46
End
