*SENSE:Minimize
NAME          MODEL
ROWS
 N  OBJ
 E  C0000000
 G  C0000001
 G  C0000002
 G  C0000003
 G  C0000004
 G  C0000005
 G  C0000006
 G  C0000007
 G  C0000008
 G  C0000009
 G  C0000010
 G  C0000011
 G  C0000012
 G  C0000013
 G  C0000014
 G  C0000015
 G  C0000016
 G  C0000017
 G  C0000018
 G  C0000019
 G  C0000020
 G  C0000021
 G  C0000022
 G  C0000023
 G  C0000024
 L  C0000025
 L  C0000026
 L  C0000027
 L  C0000028
 L  C0000029
 L  C0000030
 L  C0000031
 L  C0000032
 G  C0000033
 L  C0000034
 G  C0000035
 L  C0000036
 G  C0000037
 L  C0000038
 G  C0000039
 L  C0000040
 G  C0000041
 L  C0000042
COLUMNS
    X0000000  C0000001   1.000000000000e+00
    X0000000  C0000002   1.000000000000e+00
    X0000000  C0000032   1.000000000000e+00
    X0000001  C0000003   1.000000000000e+00
    X0000001  C0000004   1.000000000000e+00
    X0000001  C0000032   1.000000000000e+00
    X0000002  C0000005   1.000000000000e+00
    X0000002  C0000006   1.000000000000e+00
    X0000002  C0000032   1.000000000000e+00
    X0000003  C0000007   1.000000000000e+00
    X0000003  C0000008   1.000000000000e+00
    X0000003  C0000032   1.000000000000e+00
    X0000004  C0000009   1.000000000000e+00
    X0000004  C0000010   1.000000000000e+00
    X0000004  C0000032   1.000000000000e+00
    X0000005  C0000011   1.000000000000e+00
    X0000005  C0000012   1.000000000000e+00
    X0000005  C0000032   1.000000000000e+00
    X0000006  C0000013   1.000000000000e+00
    X0000006  C0000014   1.000000000000e+00
    X0000006  C0000032   1.000000000000e+00
    X0000007  C0000015   1.000000000000e+00
    X0000007  C0000016   1.000000000000e+00
    X0000007  C0000032   1.000000000000e+00
    X0000008  C0000017   1.000000000000e+00
    X0000008  C0000018   1.000000000000e+00
    X0000008  C0000032   1.000000000000e+00
    X0000009  C0000019   1.000000000000e+00
    X0000009  C0000020   1.000000000000e+00
    X0000009  C0000032   1.000000000000e+00
    X0000010  C0000021   1.000000000000e+00
    X0000010  C0000022   1.000000000000e+00
    X0000010  C0000032   1.000000000000e+00
    X0000011  C0000023   1.000000000000e+00
    X0000011  C0000024   1.000000000000e+00
    X0000011  C0000032   1.000000000000e+00
    X0000012  C0000000   1.000000000000e+00
    X0000012  C0000001  -1.818181818182e-02
    X0000012  C0000002   1.818181818182e-02
    X0000012  C0000025   2.740101383751e-03
    X0000012  C0000026  -2.740101383751e-03
    X0000012  C0000027   1.099796939561e-03
    X0000012  C0000028  -1.099796939561e-03
    X0000012  C0000029   1.151088727596e-03
    X0000012  C0000030  -1.151088727596e-03
    X0000013  C0000000   1.000000000000e+00
    X0000013  C0000003  -1.538461538462e-02
    X0000013  C0000004   1.538461538462e-02
    X0000013  C0000025   2.740101383751e-03
    X0000013  C0000026  -2.740101383751e-03
    X0000013  C0000027   1.448596906875e-03
    X0000013  C0000028  -1.448596906875e-03
    X0000013  C0000029   3.427887226584e-03
    X0000013  C0000030  -3.427887226584e-03
    X0000014  C0000000   1.000000000000e+00
    X0000014  C0000005  -1.250000000000e-01
    X0000014  C0000006   1.250000000000e-01
    X0000014  C0000025   2.740101383751e-03
    X0000014  C0000026  -2.740101383751e-03
    X0000014  C0000027   1.047330304872e-02
    X0000014  C0000028  -1.047330304872e-02
    X0000014  C0000029   4.213844862490e-03
    X0000014  C0000030  -4.213844862490e-03
    X0000014  OBJ        1.000000000000e+00
    X0000015  C0000000   1.000000000000e+00
    X0000015  C0000007  -1.000000000000e-01
    X0000015  C0000008   1.000000000000e-01
    X0000015  C0000025   2.603096314564e-03
    X0000015  C0000026  -2.603096314564e-03
    X0000015  C0000027   1.083919411330e-02
    X0000015  C0000028  -1.083919411330e-02
    X0000015  C0000029   7.060188614032e-04
    X0000015  C0000030  -7.060188614032e-04
    X0000015  C0000033   1.000000000000e+00
    X0000015  C0000034   1.000000000000e+00
    X0000016  C0000000   1.000000000000e+00
    X0000016  C0000009  -9.090909090909e-02
    X0000016  C0000010   9.090909090909e-02
    X0000016  C0000025   2.877106452939e-03
    X0000016  C0000026  -2.877106452939e-03
    X0000016  C0000027   1.072744463117e-02
    X0000016  C0000028  -1.072744463117e-02
    X0000016  C0000029   1.075099985187e-03
    X0000016  C0000030  -1.075099985187e-03
    X0000016  C0000041   1.000000000000e+00
    X0000016  C0000042   1.000000000000e+00
    X0000017  C0000000   1.000000000000e+00
    X0000017  C0000011  -1.666666666667e-01
    X0000017  C0000012   1.666666666667e-01
    X0000017  C0000025   2.877106452939e-03
    X0000017  C0000026  -2.877106452939e-03
    X0000017  C0000027   1.571733711805e-02
    X0000017  C0000028  -1.571733711805e-02
    X0000017  C0000029   1.279316644448e-03
    X0000017  C0000030  -1.279316644448e-03
    X0000017  C0000037   1.000000000000e+00
    X0000017  C0000038   1.000000000000e+00
    X0000018  C0000000   1.000000000000e+00
    X0000018  C0000013  -4.761904761905e-02
    X0000018  C0000014   4.761904761905e-02
    X0000018  C0000025   2.877106452939e-03
    X0000018  C0000026  -2.877106452939e-03
    X0000018  C0000027   4.653834994457e-03
    X0000018  C0000028  -4.653834994457e-03
    X0000018  C0000029   1.984101120822e-03
    X0000018  C0000030  -1.984101120822e-03
    X0000018  C0000035   1.000000000000e+00
    X0000018  C0000036   1.000000000000e+00
    X0000019  C0000000   1.000000000000e+00
    X0000019  C0000015  -5.555555555556e-02
    X0000019  C0000016   5.555555555556e-02
    X0000019  C0000025   2.740101383751e-03
    X0000019  C0000026  -2.740101383751e-03
    X0000019  C0000027   5.350929275320e-03
    X0000019  C0000028  -5.350929275320e-03
    X0000019  C0000029   3.874142102405e-03
    X0000019  C0000030  -3.874142102405e-03
    X0000019  C0000039   1.000000000000e+00
    X0000019  C0000040   1.000000000000e+00
    X0000020  C0000000   1.000000000000e+00
    X0000020  C0000017  -1.234567901235e-02
    X0000020  C0000018   1.234567901235e-02
    X0000020  C0000025   2.740101383751e-03
    X0000020  C0000026  -2.740101383751e-03
    X0000020  C0000027   5.045413270317e-04
    X0000020  C0000028  -5.045413270317e-04
    X0000020  C0000029   2.349429714116e-03
    X0000020  C0000030  -2.349429714116e-03
    X0000021  C0000000   1.000000000000e+00
    X0000021  C0000019  -1.250000000000e-01
    X0000021  C0000020   1.250000000000e-01
    X0000021  C0000025   2.877106452939e-03
    X0000021  C0000026  -2.877106452939e-03
    X0000021  C0000027   5.003241746289e-03
    X0000021  C0000028  -5.003241746289e-03
    X0000021  C0000029   3.002073766849e-03
    X0000021  C0000030  -3.002073766849e-03
    X0000022  C0000000   1.000000000000e+00
    X0000022  C0000021  -4.166666666667e-02
    X0000022  C0000022   4.166666666667e-02
    X0000022  C0000025   2.740101383751e-03
    X0000022  C0000026  -2.740101383751e-03
    X0000022  C0000027   3.857632575591e-03
    X0000022  C0000028  -3.857632575591e-03
    X0000022  C0000029   8.850046906631e-04
    X0000022  C0000030  -8.850046906631e-04
    X0000023  C0000000   1.000000000000e+00
    X0000023  C0000023  -1.724137931034e-02
    X0000023  C0000024   1.724137931034e-02
    X0000023  C0000025   2.740101383751e-03
    X0000023  C0000026  -2.740101383751e-03
    X0000023  C0000027   4.494250666123e-04
    X0000023  C0000028  -4.494250666123e-04
    X0000023  C0000029   4.605836172419e-03
    X0000023  C0000030  -4.605836172419e-03
    X0000024  C0000025  -1.000000000000e+00
    X0000024  C0000026  -1.000000000000e+00
    X0000024  C0000027  -1.000000000000e+00
    X0000024  C0000028  -1.000000000000e+00
    X0000024  C0000029  -1.000000000000e+00
    X0000024  C0000030  -1.000000000000e+00
    X0000024  C0000031   1.000000000000e+00
RHS
    RHS       C0000000   3.650000000000e+02
    RHS       C0000001  -1.000000000000e+00
    RHS       C0000002   1.000000000000e+00
    RHS       C0000003  -1.000000000000e+00
    RHS       C0000004   1.000000000000e+00
    RHS       C0000005  -1.000000000000e+00
    RHS       C0000006   1.000000000000e+00
    RHS       C0000007  -1.000000000000e+00
    RHS       C0000008   1.000000000000e+00
    RHS       C0000009  -1.000000000000e+00
    RHS       C0000010   1.000000000000e+00
    RHS       C0000011  -1.000000000000e+00
    RHS       C0000012   1.000000000000e+00
    RHS       C0000013  -1.000000000000e+00
    RHS       C0000014   1.000000000000e+00
    RHS       C0000015  -1.000000000000e+00
    RHS       C0000016   1.000000000000e+00
    RHS       C0000017  -1.000000000000e+00
    RHS       C0000018   1.000000000000e+00
    RHS       C0000019  -1.000000000000e+00
    RHS       C0000020   1.000000000000e+00
    RHS       C0000021  -1.000000000000e+00
    RHS       C0000022   1.000000000000e+00
    RHS       C0000023  -1.000000000000e+00
    RHS       C0000024   1.000000000000e+00
    RHS       C0000025   1.000000000000e+00
    RHS       C0000026  -1.000000000000e+00
    RHS       C0000027   1.000000000000e+00
    RHS       C0000028  -1.000000000000e+00
    RHS       C0000029   1.000000000000e+00
    RHS       C0000030  -1.000000000000e+00
    RHS       C0000031   5.490202766989e-04
    RHS       C0000032   4.471913099393e+00
    RHS       C0000033   1.999999566674e+01
    RHS       C0000034   1.999999766674e+01
    RHS       C0000035   1.050000000000e+01
    RHS       C0000036   1.050000100000e+01
    RHS       C0000037   3.007293433536e+00
    RHS       C0000038   3.007295433536e+00
    RHS       C0000039   3.599998155078e+01
    RHS       C0000040   3.599998355078e+01
    RHS       C0000041   5.500000000000e+00
    RHS       C0000042   5.500001026591e+00
BOUNDS
 LO BND       X0000012   2.750000000000e+01
 UP BND       X0000012   1.100000000000e+02
 LO BND       X0000013   3.250000000000e+01
 UP BND       X0000013   1.300000000000e+02
 LO BND       X0000014   4.000000000000e+00
 UP BND       X0000014   1.600000000000e+01
 LO BND       X0000015   5.000000000000e+00
 UP BND       X0000015   2.000000000000e+01
 LO BND       X0000016   5.500000000000e+00
 UP BND       X0000016   2.200000000000e+01
 LO BND       X0000017   3.000000000000e+00
 UP BND       X0000017   1.200000000000e+01
 LO BND       X0000018   1.050000000000e+01
 UP BND       X0000018   4.200000000000e+01
 LO BND       X0000019   9.000000000000e+00
 UP BND       X0000019   3.600000000000e+01
 LO BND       X0000020   4.050000000000e+01
 UP BND       X0000020   1.620000000000e+02
 LO BND       X0000021   4.000000000000e+00
 UP BND       X0000021   1.600000000000e+01
 LO BND       X0000022   1.200000000000e+01
 UP BND       X0000022   4.800000000000e+01
 LO BND       X0000023   2.900000000000e+01
 UP BND       X0000023   1.160000000000e+02
ENDATA
