*SENSE:Minimize
NAME          MODEL
ROWS
 N  OBJ
 E  C0000000
 G  C0000001
 G  C0000002
 G  C0000003
 G  C0000004
 G  C0000005
 G  C0000006
 G  C0000007
 G  C0000008
 G  C0000009
 G  C0000010
 G  C0000011
 G  C0000012
 G  C0000013
 G  C0000014
 G  C0000015
 G  C0000016
 G  C0000017
 G  C0000018
 G  C0000019
 G  C0000020
 G  C0000021
 G  C0000022
 G  C0000023
 G  C0000024
 L  C0000025
 L  C0000026
 L  C0000027
 L  C0000028
 L  C0000029
 L  C0000030
 L  C0000031
 L  C0000032
 G  C0000033
 L  C0000034
 G  C0000035
 L  C0000036
 G  C0000037
 L  C0000038
 G  C0000039
 L  C0000040
 G  C0000041
 L  C0000042
 G  C0000043
 L  C0000044
 G  C0000045
 L  C0000046
 G  C0000047
 L  C0000048
 G  C0000049
 L  C0000050
 G  C0000051
 L  C0000052
COLUMNS
    X0000000  C0000001   1.000000000000e+00
    X0000000  C0000002   1.000000000000e+00
    X0000000  C0000032   1.000000000000e+00
    X0000001  C0000003   1.000000000000e+00
    X0000001  C0000004   1.000000000000e+00
    X0000001  C0000032   1.000000000000e+00
    X0000002  C0000005   1.000000000000e+00
    X0000002  C0000006   1.000000000000e+00
    X0000002  C0000032   1.000000000000e+00
    X0000003  C0000007   1.000000000000e+00
    X0000003  C0000008   1.000000000000e+00
    X0000003  C0000032   1.000000000000e+00
    X0000004  C0000009   1.000000000000e+00
    X0000004  C0000010   1.000000000000e+00
    X0000004  C0000032   1.000000000000e+00
    X0000005  C0000011   1.000000000000e+00
    X0000005  C0000012   1.000000000000e+00
    X0000005  C0000032   1.000000000000e+00
    X0000006  C0000013   1.000000000000e+00
    X0000006  C0000014   1.000000000000e+00
    X0000006  C0000032   1.000000000000e+00
    X0000007  C0000015   1.000000000000e+00
    X0000007  C0000016   1.000000000000e+00
    X0000007  C0000032   1.000000000000e+00
    X0000008  C0000017   1.000000000000e+00
    X0000008  C0000018   1.000000000000e+00
    X0000008  C0000032   1.000000000000e+00
    X0000009  C0000019   1.000000000000e+00
    X0000009  C0000020   1.000000000000e+00
    X0000009  C0000032   1.000000000000e+00
    X0000010  C0000021   1.000000000000e+00
    X0000010  C0000022   1.000000000000e+00
    X0000010  C0000032   1.000000000000e+00
    X0000011  C0000023   1.000000000000e+00
    X0000011  C0000024   1.000000000000e+00
    X0000011  C0000032   1.000000000000e+00
    X0000012  C0000000   1.000000000000e+00
    X0000012  C0000001  -1.250000000000e-01
    X0000012  C0000002   1.250000000000e-01
    X0000012  C0000025   2.740101383751e-03
    X0000012  C0000026  -2.740101383751e-03
    X0000012  C0000027   8.450687987457e-03
    X0000012  C0000028  -8.450687987457e-03
    X0000012  C0000029   1.304251222041e-03
    X0000012  C0000030  -1.304251222041e-03
    X0000012  C0000033   1.000000000000e+00
    X0000012  C0000034   1.000000000000e+00
    X0000013  C0000000   1.000000000000e+00
    X0000013  C0000003  -4.000000000000e-02
    X0000013  C0000004   4.000000000000e-02
    X0000013  C0000025   2.877106452939e-03
    X0000013  C0000026  -2.877106452939e-03
    X0000013  C0000027   4.600134564580e-03
    X0000013  C0000028  -4.600134564580e-03
    X0000013  C0000029   2.013133856713e-03
    X0000013  C0000030  -2.013133856713e-03
    X0000013  C0000049   1.000000000000e+00
    X0000013  C0000050   1.000000000000e+00
    X0000014  C0000000   1.000000000000e+00
    X0000014  C0000005  -1.694915254237e-02
    X0000014  C0000006   1.694915254237e-02
    X0000014  C0000025   2.740101383751e-03
    X0000014  C0000026  -2.740101383751e-03
    X0000014  C0000027   4.494250666123e-04
    X0000014  C0000028  -4.494250666123e-04
    X0000014  C0000029   4.605836172419e-03
    X0000014  C0000030  -4.605836172419e-03
    X0000014  C0000051   1.000000000000e+00
    X0000014  C0000052   1.000000000000e+00
    X0000015  C0000000   1.000000000000e+00
    X0000015  C0000007  -1.562500000000e-02
    X0000015  C0000008   1.562500000000e-02
    X0000015  C0000025   2.740101383751e-03
    X0000015  C0000026  -2.740101383751e-03
    X0000015  C0000027   2.043852519405e-04
    X0000015  C0000028  -2.043852519405e-04
    X0000015  C0000029   1.882190292796e-03
    X0000015  C0000030  -1.882190292796e-03
    X0000015  C0000035   1.000000000000e+00
    X0000015  C0000036   1.000000000000e+00
    X0000016  C0000000   1.000000000000e+00
    X0000016  C0000009  -1.818181818182e-02
    X0000016  C0000010   1.818181818182e-02
    X0000016  C0000025   2.740101383751e-03
    X0000016  C0000026  -2.740101383751e-03
    X0000016  C0000027   3.017741671402e-04
    X0000016  C0000028  -3.017741671402e-04
    X0000016  C0000029   2.946378314324e-03
    X0000016  C0000030  -2.946378314324e-03
    X0000016  C0000043   1.000000000000e+00
    X0000016  C0000044   1.000000000000e+00
    X0000017  C0000000   1.000000000000e+00
    X0000017  C0000011  -1.428571428571e-01
    X0000017  C0000012   1.428571428571e-01
    X0000017  C0000025   2.740101383751e-03
    X0000017  C0000026  -2.740101383751e-03
    X0000017  C0000027   1.019559800081e-02
    X0000017  C0000028  -1.019559800081e-02
    X0000017  C0000029   4.120377228065e-04
    X0000017  C0000030  -4.120377228065e-04
    X0000017  C0000039   1.000000000000e+00
    X0000017  C0000040   1.000000000000e+00
    X0000018  C0000000   1.000000000000e+00
    X0000018  C0000013  -1.587301587302e-02
    X0000018  C0000014   1.587301587302e-02
    X0000018  C0000025   2.740101383751e-03
    X0000018  C0000026  -2.740101383751e-03
    X0000018  C0000027   1.161891221942e-03
    X0000018  C0000028  -1.161891221942e-03
    X0000018  C0000029   1.021033920901e-03
    X0000018  C0000030  -1.021033920901e-03
    X0000018  OBJ        1.000000000000e+00
    X0000019  C0000000   1.000000000000e+00
    X0000019  C0000015  -8.333333333333e-02
    X0000019  C0000016   8.333333333333e-02
    X0000019  C0000025   2.740101383751e-03
    X0000019  C0000026  -2.740101383751e-03
    X0000019  C0000027   1.047330304872e-02
    X0000019  C0000028  -1.047330304872e-02
    X0000019  C0000029   4.213844862490e-03
    X0000019  C0000030  -4.213844862490e-03
    X0000019  C0000047   1.000000000000e+00
    X0000019  C0000048   1.000000000000e+00
    X0000020  C0000000   1.000000000000e+00
    X0000020  C0000017  -7.692307692308e-02
    X0000020  C0000018   7.692307692308e-02
    X0000020  C0000025   2.877106452939e-03
    X0000020  C0000026  -2.877106452939e-03
    X0000020  C0000027   5.196704876899e-03
    X0000020  C0000028  -5.196704876899e-03
    X0000020  C0000029   3.690811237841e-03
    X0000020  C0000030  -3.690811237841e-03
    X0000020  C0000041   1.000000000000e+00
    X0000020  C0000042   1.000000000000e+00
    X0000021  C0000000   1.000000000000e+00
    X0000021  C0000019  -1.000000000000e-01
    X0000021  C0000020   1.000000000000e-01
    X0000021  C0000025   2.603096314564e-03
    X0000021  C0000026  -2.603096314564e-03
    X0000021  C0000027   1.083919411330e-02
    X0000021  C0000028  -1.083919411330e-02
    X0000021  C0000029   7.060188614032e-04
    X0000021  C0000030  -7.060188614032e-04
    X0000021  C0000037   1.000000000000e+00
    X0000021  C0000038   1.000000000000e+00
    X0000022  C0000000   1.000000000000e+00
    X0000022  C0000021  -2.173913043478e-02
    X0000022  C0000022   2.173913043478e-02
    X0000022  C0000025   2.740101383751e-03
    X0000022  C0000026  -2.740101383751e-03
    X0000022  C0000027   7.727400841549e-04
    X0000022  C0000028  -7.727400841549e-04
    X0000022  C0000029   3.573445909248e-03
    X0000022  C0000030  -3.573445909248e-03
    X0000023  C0000000   1.000000000000e+00
    X0000023  C0000023  -3.333333333333e-01
    X0000023  C0000024   3.333333333333e-01
    X0000023  C0000025   2.877106452939e-03
    X0000023  C0000026  -2.877106452939e-03
    X0000023  C0000027   1.914900696174e-02
    X0000023  C0000028  -1.914900696174e-02
    X0000023  C0000029   1.880857156964e-03
    X0000023  C0000030  -1.880857156964e-03
    X0000023  C0000045   1.000000000000e+00
    X0000023  C0000046   1.000000000000e+00
    X0000024  C0000025  -1.000000000000e+00
    X0000024  C0000026  -1.000000000000e+00
    X0000024  C0000027  -1.000000000000e+00
    X0000024  C0000028  -1.000000000000e+00
    X0000024  C0000029  -1.000000000000e+00
    X0000024  C0000030  -1.000000000000e+00
    X0000024  C0000031   1.000000000000e+00
RHS
    RHS       C0000000   3.650000000000e+02
    RHS       C0000001  -1.000000000000e+00
    RHS       C0000002   1.000000000000e+00
    RHS       C0000003  -1.000000000000e+00
    RHS       C0000004   1.000000000000e+00
    RHS       C0000005  -1.000000000000e+00
    RHS       C0000006   1.000000000000e+00
    RHS       C0000007  -1.000000000000e+00
    RHS       C0000008   1.000000000000e+00
    RHS       C0000009  -1.000000000000e+00
    RHS       C0000010   1.000000000000e+00
    RHS       C0000011  -1.000000000000e+00
    RHS       C0000012   1.000000000000e+00
    RHS       C0000013  -1.000000000000e+00
    RHS       C0000014   1.000000000000e+00
    RHS       C0000015  -1.000000000000e+00
    RHS       C0000016   1.000000000000e+00
    RHS       C0000017  -1.000000000000e+00
    RHS       C0000018   1.000000000000e+00
    RHS       C0000019  -1.000000000000e+00
    RHS       C0000020   1.000000000000e+00
    RHS       C0000021  -1.000000000000e+00
    RHS       C0000022   1.000000000000e+00
    RHS       C0000023  -1.000000000000e+00
    RHS       C0000024   1.000000000000e+00
    RHS       C0000025   1.000000000000e+00
    RHS       C0000026  -1.000000000000e+00
    RHS       C0000027   1.000000000000e+00
    RHS       C0000028  -1.000000000000e+00
    RHS       C0000029   1.000000000000e+00
    RHS       C0000030  -1.000000000000e+00
    RHS       C0000031   2.065076037289e-04
    RHS       C0000032   5.817248738962e+00
    RHS       C0000033   1.203908445527e+01
    RHS       C0000034   1.203908645527e+01
    RHS       C0000035   3.245822103048e+01
    RHS       C0000036   3.245822303048e+01
    RHS       C0000037   1.999999897036e+01
    RHS       C0000038   2.000000000000e+01
    RHS       C0000039   1.399999819411e+01
    RHS       C0000040   1.400000000000e+01
    RHS       C0000041   6.500000000000e+00
    RHS       C0000042   6.500001000000e+00
    RHS       C0000043   5.499999827089e+01
    RHS       C0000044   5.500000027089e+01
    RHS       C0000045   1.507297956117e+00
    RHS       C0000046   1.507299956117e+00
    RHS       C0000047   2.399999875254e+01
    RHS       C0000048   2.400000000000e+01
    RHS       C0000049   1.250000000000e+01
    RHS       C0000050   1.250000100000e+01
    RHS       C0000051   7.799534525764e+01
    RHS       C0000052   7.799534725764e+01
BOUNDS
 LO BND       X0000012   4.000000000000e+00
 UP BND       X0000012   1.600000000000e+01
 LO BND       X0000013   1.250000000000e+01
 UP BND       X0000013   5.000000000000e+01
 LO BND       X0000014   2.950000000000e+01
 UP BND       X0000014   1.180000000000e+02
 LO BND       X0000015   3.200000000000e+01
 UP BND       X0000015   1.280000000000e+02
 LO BND       X0000016   2.750000000000e+01
 UP BND       X0000016   1.100000000000e+02
 LO BND       X0000017   3.500000000000e+00
 UP BND       X0000017   1.400000000000e+01
 LO BND       X0000018   3.150000000000e+01
 UP BND       X0000018   1.260000000000e+02
 LO BND       X0000019   6.000000000000e+00
 UP BND       X0000019   2.400000000000e+01
 LO BND       X0000020   6.500000000000e+00
 UP BND       X0000020   2.600000000000e+01
 LO BND       X0000021   5.000000000000e+00
 UP BND       X0000021   2.000000000000e+01
 LO BND       X0000022   2.300000000000e+01
 UP BND       X0000022   9.200000000000e+01
 LO BND       X0000023   1.500000000000e+00
 UP BND       X0000023   6.000000000000e+00
ENDATA
