*SENSE:Minimize
NAME          MODEL
ROWS
 N  OBJ
 E  C0000000
 G  C0000001
 G  C0000002
 G  C0000003
 G  C0000004
 G  C0000005
 G  C0000006
 G  C0000007
 G  C0000008
 G  C0000009
 G  C0000010
 G  C0000011
 G  C0000012
 G  C0000013
 G  C0000014
 G  C0000015
 G  C0000016
 G  C0000017
 G  C0000018
 G  C0000019
 G  C0000020
 G  C0000021
 G  C0000022
 G  C0000023
 G  C0000024
 G  C0000025
 G  C0000026
 G  C0000027
 G  C0000028
 G  C0000029
 G  C0000030
 G  C0000031
 G  C0000032
 G  C0000033
 G  C0000034
 G  C0000035
 G  C0000036
 G  C0000037
 G  C0000038
 G  C0000039
 G  C0000040
 G  C0000041
 G  C0000042
 G  C0000043
 G  C0000044
 G  C0000045
 G  C0000046
 G  C0000047
 G  C0000048
 L  C0000049
 L  C0000050
 L  C0000051
 L  C0000052
 L  C0000053
 L  C0000054
 L  C0000055
 L  C0000056
 G  C0000057
 L  C0000058
 G  C0000059
 L  C0000060
 G  C0000061
 L  C0000062
 G  C0000063
 L  C0000064
 G  C0000065
 L  C0000066
 G  C0000067
 L  C0000068
 G  C0000069
 L  C0000070
 G  C0000071
 L  C0000072
 G  C0000073
 L  C0000074
 G  C0000075
 L  C0000076
 G  C0000077
 L  C0000078
 G  C0000079
 L  C0000080
 G  C0000081
 L  C0000082
 G  C0000083
 L  C0000084
 G  C0000085
 L  C0000086
 G  C0000087
 L  C0000088
 G  C0000089
 L  C0000090
 G  C0000091
 L  C0000092
 G  C0000093
 L  C0000094
COLUMNS
    X0000000  C0000001   1.000000000000e+00
    X0000000  C0000002   1.000000000000e+00
    X0000000  C0000056   1.000000000000e+00
    X0000001  C0000003   1.000000000000e+00
    X0000001  C0000004   1.000000000000e+00
    X0000001  C0000056   1.000000000000e+00
    X0000002  C0000005   1.000000000000e+00
    X0000002  C0000006   1.000000000000e+00
    X0000002  C0000056   1.000000000000e+00
    X0000003  C0000007   1.000000000000e+00
    X0000003  C0000008   1.000000000000e+00
    X0000003  C0000056   1.000000000000e+00
    X0000004  C0000009   1.000000000000e+00
    X0000004  C0000010   1.000000000000e+00
    X0000004  C0000056   1.000000000000e+00
    X0000005  C0000011   1.000000000000e+00
    X0000005  C0000012   1.000000000000e+00
    X0000005  C0000056   1.000000000000e+00
    X0000006  C0000013   1.000000000000e+00
    X0000006  C0000014   1.000000000000e+00
    X0000006  C0000056   1.000000000000e+00
    X0000007  C0000015   1.000000000000e+00
    X0000007  C0000016   1.000000000000e+00
    X0000007  C0000056   1.000000000000e+00
    X0000008  C0000017   1.000000000000e+00
    X0000008  C0000018   1.000000000000e+00
    X0000008  C0000056   1.000000000000e+00
    X0000009  C0000019   1.000000000000e+00
    X0000009  C0000020   1.000000000000e+00
    X0000009  C0000056   1.000000000000e+00
    X0000010  C0000021   1.000000000000e+00
    X0000010  C0000022   1.000000000000e+00
    X0000010  C0000056   1.000000000000e+00
    X0000011  C0000023   1.000000000000e+00
    X0000011  C0000024   1.000000000000e+00
    X0000011  C0000056   1.000000000000e+00
    X0000012  C0000025   1.000000000000e+00
    X0000012  C0000026   1.000000000000e+00
    X0000012  C0000056   1.000000000000e+00
    X0000013  C0000027   1.000000000000e+00
    X0000013  C0000028   1.000000000000e+00
    X0000013  C0000056   1.000000000000e+00
    X0000014  C0000029   1.000000000000e+00
    X0000014  C0000030   1.000000000000e+00
    X0000014  C0000056   1.000000000000e+00
    X0000015  C0000031   1.000000000000e+00
    X0000015  C0000032   1.000000000000e+00
    X0000015  C0000056   1.000000000000e+00
    X0000016  C0000033   1.000000000000e+00
    X0000016  C0000034   1.000000000000e+00
    X0000016  C0000056   1.000000000000e+00
    X0000017  C0000035   1.000000000000e+00
    X0000017  C0000036   1.000000000000e+00
    X0000017  C0000056   1.000000000000e+00
    X0000018  C0000037   1.000000000000e+00
    X0000018  C0000038   1.000000000000e+00
    X0000018  C0000056   1.000000000000e+00
    X0000019  C0000039   1.000000000000e+00
    X0000019  C0000040   1.000000000000e+00
    X0000019  C0000056   1.000000000000e+00
    X0000020  C0000041   1.000000000000e+00
    X0000020  C0000042   1.000000000000e+00
    X0000020  C0000056   1.000000000000e+00
    X0000021  C0000043   1.000000000000e+00
    X0000021  C0000044   1.000000000000e+00
    X0000021  C0000056   1.000000000000e+00
    X0000022  C0000045   1.000000000000e+00
    X0000022  C0000046   1.000000000000e+00
    X0000022  C0000056   1.000000000000e+00
    X0000023  C0000047   1.000000000000e+00
    X0000023  C0000048   1.000000000000e+00
    X0000023  C0000056   1.000000000000e+00
    X0000024  C0000000   1.000000000000e+00
    X0000024  C0000001  -5.000000000000e-02
    X0000024  C0000002   5.000000000000e-02
    X0000024  C0000049   2.603096314564e-03
    X0000024  C0000050  -2.603096314564e-03
    X0000024  C0000051   2.526954126787e-03
    X0000024  C0000052  -2.526954126787e-03
    X0000024  C0000053   1.066459289982e-03
    X0000024  C0000054  -1.066459289982e-03
    X0000025  C0000000   1.000000000000e+00
    X0000025  C0000003  -3.703703703704e-02
    X0000025  C0000004   3.703703703704e-02
    X0000025  C0000049   2.877106452939e-03
    X0000025  C0000050  -2.877106452939e-03
    X0000025  C0000051   5.885809828271e-05
    X0000025  C0000052  -5.885809828271e-05
    X0000025  C0000053   4.626672591715e-03
    X0000025  C0000054  -4.626672591715e-03
    X0000025  C0000085   1.000000000000e+00
    X0000025  C0000086   1.000000000000e+00
    X0000026  C0000000   1.000000000000e+00
    X0000026  C0000005  -2.777777777778e-02
    X0000026  C0000006   2.777777777778e-02
    X0000026  C0000049   2.877106452939e-03
    X0000026  C0000050  -2.877106452939e-03
    X0000026  C0000051   5.501512966631e-04
    X0000026  C0000052  -5.501512966631e-04
    X0000026  C0000053   2.595171085765e-03
    X0000026  C0000054  -2.595171085765e-03
    X0000026  C0000091   1.000000000000e+00
    X0000026  C0000092   1.000000000000e+00
    X0000027  C0000000   1.000000000000e+00
    X0000027  C0000007  -5.000000000000e-01
    X0000027  C0000008   5.000000000000e-01
    X0000027  C0000049   2.877106452939e-03
    X0000027  C0000050  -2.877106452939e-03
    X0000027  C0000051   1.571733711805e-02
    X0000027  C0000052  -1.571733711805e-02
    X0000027  C0000053   1.279316644448e-03
    X0000027  C0000054  -1.279316644448e-03
    X0000027  C0000067   1.000000000000e+00
    X0000027  C0000068   1.000000000000e+00
    X0000028  C0000000   1.000000000000e+00
    X0000028  C0000009  -2.500000000000e-01
    X0000028  C0000010   2.500000000000e-01
    X0000028  C0000049   2.740101383751e-03
    X0000028  C0000050  -2.740101383751e-03
    X0000028  C0000051   1.032312388042e-02
    X0000028  C0000052  -1.032312388042e-02
    X0000028  C0000053   4.939613884363e-03
    X0000028  C0000054  -4.939613884363e-03
    X0000028  C0000071   1.000000000000e+00
    X0000028  C0000072   1.000000000000e+00
    X0000029  C0000000   1.000000000000e+00
    X0000029  C0000011  -3.333333333333e-01
    X0000029  C0000012   3.333333333333e-01
    X0000029  C0000049   2.877106452939e-03
    X0000029  C0000050  -2.877106452939e-03
    X0000029  C0000051   7.137808551192e-03
    X0000029  C0000052  -7.137808551192e-03
    X0000029  C0000053   4.614378116822e-03
    X0000029  C0000054  -4.614378116822e-03
    X0000029  C0000069   1.000000000000e+00
    X0000029  C0000070   1.000000000000e+00
    X0000030  C0000000   1.000000000000e+00
    X0000030  C0000013  -2.500000000000e-01
    X0000030  C0000014   2.500000000000e-01
    X0000030  C0000049   2.877106452939e-03
    X0000030  C0000050  -2.877106452939e-03
    X0000030  C0000051   1.175513534379e-02
    X0000030  C0000052  -1.175513534379e-02
    X0000030  C0000053   3.241988841159e-04
    X0000030  C0000054  -3.241988841159e-04
    X0000031  C0000000   1.000000000000e+00
    X0000031  C0000015  -2.500000000000e-01
    X0000031  C0000016   2.500000000000e-01
    X0000031  C0000049   2.603096314564e-03
    X0000031  C0000050  -2.603096314564e-03
    X0000031  C0000051   7.119503884887e-03
    X0000031  C0000052  -7.119503884887e-03
    X0000031  C0000053   1.840418703402e-03
    X0000031  C0000054  -1.840418703402e-03
    X0000032  C0000000   1.000000000000e+00
    X0000032  C0000017  -5.555555555556e-02
    X0000032  C0000018   5.555555555556e-02
    X0000032  C0000049   2.740101383751e-03
    X0000032  C0000050  -2.740101383751e-03
    X0000032  C0000051   4.060399735482e-03
    X0000032  C0000052  -4.060399735482e-03
    X0000032  C0000053   4.202982274231e-03
    X0000032  C0000054  -4.202982274231e-03
    X0000032  C0000073   1.000000000000e+00
    X0000032  C0000074   1.000000000000e+00
    X0000033  C0000000   1.000000000000e+00
    X0000033  C0000019  -3.571428571429e-02
    X0000033  C0000020   3.571428571429e-02
    X0000033  C0000049   2.603096314564e-03
    X0000033  C0000050  -2.603096314564e-03
    X0000033  C0000051   2.098463126059e-04
    X0000033  C0000052  -2.098463126059e-04
    X0000033  C0000053   3.115834691157e-03
    X0000033  C0000054  -3.115834691157e-03
    X0000033  C0000061   1.000000000000e+00
    X0000033  C0000062   1.000000000000e+00
    X0000034  C0000000   1.000000000000e+00
    X0000034  C0000021  -2.325581395349e-02
    X0000034  C0000022   2.325581395349e-02
    X0000034  C0000049   2.740101383751e-03
    X0000034  C0000050  -2.740101383751e-03
    X0000034  C0000051   1.161891221942e-03
    X0000034  C0000052  -1.161891221942e-03
    X0000034  C0000053   1.021033920901e-03
    X0000034  C0000054  -1.021033920901e-03
    X0000034  C0000089   1.000000000000e+00
    X0000034  C0000090   1.000000000000e+00
    X0000035  C0000000   1.000000000000e+00
    X0000035  C0000023  -5.000000000000e-01
    X0000035  C0000024   5.000000000000e-01
    X0000035  C0000049   2.740101383751e-03
    X0000035  C0000050  -2.740101383751e-03
    X0000035  C0000051   2.373821940499e-02
    X0000035  C0000052  -2.373821940499e-02
    X0000035  C0000053   4.145064928653e-04
    X0000035  C0000054  -4.145064928653e-04
    X0000035  C0000057   1.000000000000e+00
    X0000035  C0000058   1.000000000000e+00
    X0000036  C0000000   1.000000000000e+00
    X0000036  C0000025  -1.666666666667e-01
    X0000036  C0000026   1.666666666667e-01
    X0000036  C0000049   2.740101383751e-03
    X0000036  C0000050  -2.740101383751e-03
    X0000036  C0000051   8.728696427627e-03
    X0000036  C0000052  -8.728696427627e-03
    X0000036  C0000053   9.282575420925e-04
    X0000036  C0000054  -9.282575420925e-04
    X0000036  C0000087   1.000000000000e+00
    X0000036  C0000088   1.000000000000e+00
    X0000037  C0000000   1.000000000000e+00
    X0000037  C0000027  -6.666666666667e-02
    X0000037  C0000028   6.666666666667e-02
    X0000037  C0000049   2.740101383751e-03
    X0000037  C0000050  -2.740101383751e-03
    X0000037  C0000051   4.303416935093e-03
    X0000037  C0000052  -4.303416935093e-03
    X0000037  C0000053   2.036044042858e-03
    X0000037  C0000054  -2.036044042858e-03
    X0000037  C0000075   1.000000000000e+00
    X0000037  C0000076   1.000000000000e+00
    X0000038  C0000000   1.000000000000e+00
    X0000038  C0000029  -5.555555555556e-02
    X0000038  C0000030   5.555555555556e-02
    X0000038  C0000049   2.740101383751e-03
    X0000038  C0000050  -2.740101383751e-03
    X0000038  C0000051   8.530379020870e-04
    X0000038  C0000052  -8.530379020870e-04
    X0000038  C0000053   3.109169011998e-03
    X0000038  C0000054  -3.109169011998e-03
    X0000038  C0000083   1.000000000000e+00
    X0000038  C0000084   1.000000000000e+00
    X0000039  C0000000   1.000000000000e+00
    X0000039  C0000031  -2.439024390244e-02
    X0000039  C0000032   2.439024390244e-02
    X0000039  C0000049   2.740101383751e-03
    X0000039  C0000050  -2.740101383751e-03
    X0000039  C0000051   3.107748041628e-04
    X0000039  C0000052  -3.107748041628e-04
    X0000039  C0000053   1.816422258431e-03
    X0000039  C0000054  -1.816422258431e-03
    X0000039  C0000063   1.000000000000e+00
    X0000039  C0000064   1.000000000000e+00
    X0000040  C0000000   1.000000000000e+00
    X0000040  C0000033  -1.666666666667e-01
    X0000040  C0000034   1.666666666667e-01
    X0000040  C0000049   2.740101383751e-03
    X0000040  C0000050  -2.740101383751e-03
    X0000040  C0000051   1.019559800081e-02
    X0000040  C0000052  -1.019559800081e-02
    X0000040  C0000053   4.120377228065e-04
    X0000040  C0000054  -4.120377228065e-04
    X0000040  C0000059   1.000000000000e+00
    X0000040  C0000060   1.000000000000e+00
    X0000041  C0000000   1.000000000000e+00
    X0000041  C0000035  -1.666666666667e-01
    X0000041  C0000036   1.666666666667e-01
    X0000041  C0000049   2.877106452939e-03
    X0000041  C0000050  -2.877106452939e-03
    X0000041  C0000051   1.049656312192e-02
    X0000041  C0000052  -1.049656312192e-02
    X0000041  C0000053   5.760134301091e-04
    X0000041  C0000054  -5.760134301091e-04
    X0000041  OBJ        1.000000000000e+00
    X0000042  C0000000   1.000000000000e+00
    X0000042  C0000037  -3.703703703704e-02
    X0000042  C0000038   3.703703703704e-02
    X0000042  C0000049   2.877106452939e-03
    X0000042  C0000050  -2.877106452939e-03
    X0000042  C0000051   1.275157665372e-03
    X0000042  C0000052  -1.275157665372e-03
    X0000042  C0000053   3.260060237989e-03
    X0000042  C0000054  -3.260060237989e-03
    X0000042  C0000093   1.000000000000e+00
    X0000042  C0000094   1.000000000000e+00
    X0000043  C0000000   1.000000000000e+00
    X0000043  C0000039  -1.250000000000e-01
    X0000043  C0000040   1.250000000000e-01
    X0000043  C0000049   2.877106452939e-03
    X0000043  C0000050  -2.877106452939e-03
    X0000043  C0000051   5.003241746289e-03
    X0000043  C0000052  -5.003241746289e-03
    X0000043  C0000053   3.002073766849e-03
    X0000043  C0000054  -3.002073766849e-03
    X0000043  C0000077   1.000000000000e+00
    X0000043  C0000078   1.000000000000e+00
    X0000044  C0000000   1.000000000000e+00
    X0000044  C0000041  -3.333333333333e-01
    X0000044  C0000042   3.333333333333e-01
    X0000044  C0000049   2.877106452939e-03
    X0000044  C0000050  -2.877106452939e-03
    X0000044  C0000051   1.283359369446e-02
    X0000044  C0000052  -1.283359369446e-02
    X0000044  C0000053   2.804177158939e-03
    X0000044  C0000054  -2.804177158939e-03
    X0000045  C0000000   1.000000000000e+00
    X0000045  C0000043  -3.448275862069e-02
    X0000045  C0000044   3.448275862069e-02
    X0000045  C0000049   2.603096314564e-03
    X0000045  C0000050  -2.603096314564e-03
    X0000045  C0000051   8.920743727694e-04
    X0000045  C0000052  -8.920743727694e-04
    X0000045  C0000053   4.043795980842e-03
    X0000045  C0000054  -4.043795980842e-03
    X0000045  C0000065   1.000000000000e+00
    X0000045  C0000066   1.000000000000e+00
    X0000046  C0000000   1.000000000000e+00
    X0000046  C0000045  -3.333333333333e-01
    X0000046  C0000046   3.333333333333e-01
    X0000046  C0000049   2.603096314564e-03
    X0000046  C0000050  -2.603096314564e-03
    X0000046  C0000051   1.481130670136e-02
    X0000046  C0000052  -1.481130670136e-02
    X0000046  C0000053   4.085616945638e-03
    X0000046  C0000054  -4.085616945638e-03
    X0000046  C0000079   1.000000000000e+00
    X0000046  C0000080   1.000000000000e+00
    X0000047  C0000000   1.000000000000e+00
    X0000047  C0000047  -8.333333333333e-02
    X0000047  C0000048   8.333333333333e-02
    X0000047  C0000049   2.603096314564e-03
    X0000047  C0000050  -2.603096314564e-03
    X0000047  C0000051   2.065797892819e-03
    X0000047  C0000052  -2.065797892819e-03
    X0000047  C0000053   5.210882338419e-03
    X0000047  C0000054  -5.210882338419e-03
    X0000047  C0000081   1.000000000000e+00
    X0000047  C0000082   1.000000000000e+00
    X0000048  C0000049  -1.000000000000e+00
    X0000048  C0000050  -1.000000000000e+00
    X0000048  C0000051  -1.000000000000e+00
    X0000048  C0000052  -1.000000000000e+00
    X0000048  C0000053  -1.000000000000e+00
    X0000048  C0000054  -1.000000000000e+00
    X0000048  C0000055   1.000000000000e+00
RHS
    RHS       C0000000   3.650000000000e+02
    RHS       C0000001  -1.000000000000e+00
    RHS       C0000002   1.000000000000e+00
    RHS       C0000003  -1.000000000000e+00
    RHS       C0000004   1.000000000000e+00
    RHS       C0000005  -1.000000000000e+00
    RHS       C0000006   1.000000000000e+00
    RHS       C0000007  -1.000000000000e+00
    RHS       C0000008   1.000000000000e+00
    RHS       C0000009  -1.000000000000e+00
    RHS       C0000010   1.000000000000e+00
    RHS       C0000011  -1.000000000000e+00
    RHS       C0000012   1.000000000000e+00
    RHS       C0000013  -1.000000000000e+00
    RHS       C0000014   1.000000000000e+00
    RHS       C0000015  -1.000000000000e+00
    RHS       C0000016   1.000000000000e+00
    RHS       C0000017  -1.000000000000e+00
    RHS       C0000018   1.000000000000e+00
    RHS       C0000019  -1.000000000000e+00
    RHS       C0000020   1.000000000000e+00
    RHS       C0000021  -1.000000000000e+00
    RHS       C0000022   1.000000000000e+00
    RHS       C0000023  -1.000000000000e+00
    RHS       C0000024   1.000000000000e+00
    RHS       C0000025  -1.000000000000e+00
    RHS       C0000026   1.000000000000e+00
    RHS       C0000027  -1.000000000000e+00
    RHS       C0000028   1.000000000000e+00
    RHS       C0000029  -1.000000000000e+00
    RHS       C0000030   1.000000000000e+00
    RHS       C0000031  -1.000000000000e+00
    RHS       C0000032   1.000000000000e+00
    RHS       C0000033  -1.000000000000e+00
    RHS       C0000034   1.000000000000e+00
    RHS       C0000035  -1.000000000000e+00
    RHS       C0000036   1.000000000000e+00
    RHS       C0000037  -1.000000000000e+00
    RHS       C0000038   1.000000000000e+00
    RHS       C0000039  -1.000000000000e+00
    RHS       C0000040   1.000000000000e+00
    RHS       C0000041  -1.000000000000e+00
    RHS       C0000042   1.000000000000e+00
    RHS       C0000043  -1.000000000000e+00
    RHS       C0000044   1.000000000000e+00
    RHS       C0000045  -1.000000000000e+00
    RHS       C0000046   1.000000000000e+00
    RHS       C0000047  -1.000000000000e+00
    RHS       C0000048   1.000000000000e+00
    RHS       C0000049   1.000000000000e+00
    RHS       C0000050  -1.000000000000e+00
    RHS       C0000051   1.000000000000e+00
    RHS       C0000052  -1.000000000000e+00
    RHS       C0000053   1.000000000000e+00
    RHS       C0000054  -1.000000000000e+00
    RHS       C0000055   1.000000000000e-06
    RHS       C0000056   2.391700709542e+00
    RHS       C0000057   1.999997940146e+00
    RHS       C0000058   1.999999940146e+00
    RHS       C0000059   1.008047519911e+01
    RHS       C0000060   1.008047719911e+01
    RHS       C0000061   2.799999879266e+01
    RHS       C0000062   2.800000079266e+01
    RHS       C0000063   3.670065258809e+01
    RHS       C0000064   3.670065458809e+01
    RHS       C0000065   3.060571491553e+01
    RHS       C0000066   3.060571691553e+01
    RHS       C0000067   1.999998996087e+00
    RHS       C0000068   2.000000996087e+00
    RHS       C0000069   2.999998993217e+00
    RHS       C0000070   3.000000993217e+00
    RHS       C0000071   3.999998993448e+00
    RHS       C0000072   4.000000993448e+00
    RHS       C0000073   3.599999884167e+01
    RHS       C0000074   3.600000000000e+01
    RHS       C0000075   1.499999897704e+01
    RHS       C0000076   1.500000097704e+01
    RHS       C0000077   7.999998983422e+00
    RHS       C0000078   8.000000983422e+00
    RHS       C0000079   3.000065178639e+00
    RHS       C0000080   3.000067178639e+00
    RHS       C0000081   1.199999897983e+01
    RHS       C0000082   1.200000097983e+01
    RHS       C0000083   1.799999894405e+01
    RHS       C0000084   1.800000094405e+01
    RHS       C0000085   2.561308192532e+01
    RHS       C0000086   2.561308392532e+01
    RHS       C0000087   5.999998990502e+00
    RHS       C0000088   6.000000990502e+00
    RHS       C0000089   4.299999879653e+01
    RHS       C0000090   4.300000079653e+01
    RHS       C0000091   1.800000000000e+01
    RHS       C0000092   1.800000100000e+01
    RHS       C0000093   2.699999882241e+01
    RHS       C0000094   2.700000082241e+01
BOUNDS
 LO BND       X0000024   1.000000000000e+01
 UP BND       X0000024   4.000000000000e+01
 LO BND       X0000025   1.350000000000e+01
 UP BND       X0000025   5.400000000000e+01
 LO BND       X0000026   1.800000000000e+01
 UP BND       X0000026   7.200000000000e+01
 LO BND       X0000027   1.000000000000e+00
 UP BND       X0000027   4.000000000000e+00
 LO BND       X0000028   2.000000000000e+00
 UP BND       X0000028   8.000000000000e+00
 LO BND       X0000029   1.500000000000e+00
 UP BND       X0000029   6.000000000000e+00
 LO BND       X0000030   2.000000000000e+00
 UP BND       X0000030   8.000000000000e+00
 LO BND       X0000031   2.000000000000e+00
 UP BND       X0000031   8.000000000000e+00
 LO BND       X0000032   9.000000000000e+00
 UP BND       X0000032   3.600000000000e+01
 LO BND       X0000033   1.400000000000e+01
 UP BND       X0000033   5.600000000000e+01
 LO BND       X0000034   2.150000000000e+01
 UP BND       X0000034   8.600000000000e+01
 LO BND       X0000035   1.000000000000e+00
 UP BND       X0000035   4.000000000000e+00
 LO BND       X0000036   3.000000000000e+00
 UP BND       X0000036   1.200000000000e+01
 LO BND       X0000037   7.500000000000e+00
 UP BND       X0000037   3.000000000000e+01
 LO BND       X0000038   9.000000000000e+00
 UP BND       X0000038   3.600000000000e+01
 LO BND       X0000039   2.050000000000e+01
 UP BND       X0000039   8.200000000000e+01
 LO BND       X0000040   3.000000000000e+00
 UP BND       X0000040   1.200000000000e+01
 LO BND       X0000041   3.000000000000e+00
 UP BND       X0000041   1.200000000000e+01
 LO BND       X0000042   1.350000000000e+01
 UP BND       X0000042   5.400000000000e+01
 LO BND       X0000043   4.000000000000e+00
 UP BND       X0000043   1.600000000000e+01
 LO BND       X0000044   1.500000000000e+00
 UP BND       X0000044   6.000000000000e+00
 LO BND       X0000045   1.450000000000e+01
 UP BND       X0000045   5.800000000000e+01
 LO BND       X0000046   1.500000000000e+00
 UP BND       X0000046   6.000000000000e+00
 LO BND       X0000047   6.000000000000e+00
 UP BND       X0000047   2.400000000000e+01
ENDATA
