\* U11R08_energy_weights *\
Minimize
OBJ: w_045
Subject To
_C1: d_000 - 0.0526315789474 w_000 >= -1
_C10: d_004 + w_004 >= 1
_C100: - 0.000853037902087 w_000 - 0.00558312548435 w_001
 - 0.00159129239945 w_002 - 0.00326804028523 w_003 - 0.0157173371181 w_004
 - 0.0101072097226 w_005 - 0.0101813385646 w_006 - 0.000550151296663 w_007
 - 0.00801865741037 w_008 - 0.0109740014071 w_009 - 0.0051967048769 w_010
 - 0.000209846312606 w_011 - 0.0132699728939 w_012 - 0.0122054705872 w_013
 - 0.00298993071431 w_014 - 0.00035031692861 w_015 - 0.000275480171344 w_016
 - 0.023738219405 w_017 - 0.0101955980008 w_018 - 0.00845068798746 w_019
 - 0.00188588628312 w_020 - 0.000741490681458 w_021 - 0.0131501329515 w_022
 - 0.0107274446312 w_023 - 0.00409377288399 w_024 - 0.0149962748487 w_025
 - 0.000504541327032 w_026 - 0.00874639430941 w_027 - 0.00392599696466 w_028
 - 0.00358012978919 w_029 - 0.0117398646001 w_030 - 0.00765772175269 w_031
 - 0.0157491933053 w_032 - 0.00590462014834 w_033 - 0.011927057624 w_034
 - 0.00908963208531 w_035 - 0.000720556615574 w_036 - 0.00500324174629 w_037
 - 0.00783621753185 w_038 - 0.000412613472497 w_039 - 0.00919834764485 w_040
 - 0.0148113067014 w_041 - 0.0191490069617 w_042 - 9.10176777568e-05 w_043
 - 0.000267693103358 w_044 - 0.00684948477421 w_045 - 0.0101644497289 w_046
 - 0.00572106783153 w_047 - worst_relative_error <= -1
_C101: 0.003109169012 w_000 + 0.00253231620007 w_001 + 0.00479706710117 w_002
 + 0.00044916802449 w_003 + 0.00127931664445 w_004 + 0.00211025527082 w_005
 + 0.00517459141856 w_006 + 0.00259517108577 w_007 + 0.000311904409223 w_008
 + 0.0024664494149 w_009 + 0.00369081123784 w_010 + 0.00311583469116 w_011
 + 0.00208433318521 w_012 + 0.00144077420629 w_013 + 0.00190677924258 w_014
 + 0.00417533204957 w_015 + 0.00114496617785 w_016 + 0.000414506492865 w_017
 + 0.000412037722806 w_018 + 0.00130425122204 w_019 + 0.00357240902582 w_020
 + 0.00127595911717 w_021 + 0.00108853009431 w_022 + 0.00107509998519 w_023
 + 0.00374996296845 w_024 + 0.00314062114255 w_025 + 0.00234942971412 w_026
 + 0.000370315508814 w_027 + 0.00094455142448 w_028 + 0.000588011652595 w_029
 + 0.00386481015158 w_030 + 0.00212304349973 w_031 + 0.000329531427443 w_032
 + 0.00547642324594 w_033 + 0.00116585197255 w_034 + 0.003916061818 w_035
 + 0.00188885597195 w_036 + 0.00300207376685 w_037 + 0.00103006961932 w_038
 + 0.00467165358219 w_039 + 0.00154105564608 w_040 + 0.00408561694564 w_041
 + 0.00188085715696 w_042 + 0.00489453414309 w_043 + 0.00068528119291 w_044
 + 0.00234345529057 w_045 + 0.00207791438305 w_046 + 0.0033279020392 w_047
 - worst_relative_error <= 1
_C102: - 0.003109169012 w_000 - 0.00253231620007 w_001
 - 0.00479706710117 w_002 - 0.00044916802449 w_003 - 0.00127931664445 w_004
 - 0.00211025527082 w_005 - 0.00517459141856 w_006 - 0.00259517108577 w_007
 - 0.000311904409223 w_008 - 0.0024664494149 w_009 - 0.00369081123784 w_010
 - 0.00311583469116 w_011 - 0.00208433318521 w_012 - 0.00144077420629 w_013
 - 0.00190677924258 w_014 - 0.00417533204957 w_015 - 0.00114496617785 w_016
 - 0.000414506492865 w_017 - 0.000412037722806 w_018 - 0.00130425122204 w_019
 - 0.00357240902582 w_020 - 0.00127595911717 w_021 - 0.00108853009431 w_022
 - 0.00107509998519 w_023 - 0.00374996296845 w_024 - 0.00314062114255 w_025
 - 0.00234942971412 w_026 - 0.000370315508814 w_027 - 0.00094455142448 w_028
 - 0.000588011652595 w_029 - 0.00386481015158 w_030 - 0.00212304349973 w_031
 - 0.000329531427443 w_032 - 0.00547642324594 w_033 - 0.00116585197255 w_034
 - 0.003916061818 w_035 - 0.00188885597195 w_036 - 0.00300207376685 w_037
 - 0.00103006961932 w_038 - 0.00467165358219 w_039 - 0.00154105564608 w_040
 - 0.00408561694564 w_041 - 0.00188085715696 w_042 - 0.00489453414309 w_043
 - 0.00068528119291 w_044 - 0.00234345529057 w_045 - 0.00207791438305 w_046
 - 0.0033279020392 w_047 - worst_relative_error <= -1
_C103: w_022 >= 5.99997278712
_C104: w_022 <= 5.99997478712
_C105: w_017 >= 0.999998977529
_C106: w_017 <= 1.00000097753
_C107: w_019 >= 1.9999989467
_C108: w_019 <= 2.0000009467
_C109: w_018 >= 2.99999893664
_C11: d_005 - 0.5 w_005 >= -1
_C110: w_018 <= 3.00000093664
_C111: w_011 >= 20.1100110229
_C112: w_011 <= 20.1100130229
_C113: w_021 >= 11.9999988871
_C114: w_021 <= 12.0000008871
_C115: w_029 >= 1.99999899164
_C116: w_029 <= 2.00000099164
_C117: w_010 >= 11.8733574726
_C118: w_010 <= 11.8733594726
_C119: w_046 >= 0.999998996298
_C12: d_005 + 0.5 w_005 >= 1
_C120: w_046 <= 1.0000009963
_C121: w_030 >= 0.999998996427
_C122: w_030 <= 1.00000099643
_C123: w_035 >= 1.99999899363
_C124: w_035 <= 2.00000099363
_C125: w_034 >= 0.999998996384
_C126: w_034 <= 1.00000099638
_C127: w_028 >= 7.99999897698
_C128: w_028 <= 8.00000097698
_C129: w_044 >= 13.9999988008
_C13: d_006 - 0.2 w_006 >= -1
_C130: w_044 <= 14.0000008008
_C131: w_025 >= 0.999998996679
_C132: w_025 <= 1.00000099668
_C133: w_004 >= 0.99999899669
_C134: w_004 <= 1.00000099669
_C135: w_038 >= 1.99999899327
_C136: w_038 <= 2.00000099327
_C137: w_024 >= 5.99999898124
_C138: w_024 <= 6.00000098124
_C139: w_002 >= 12.999998946
_C14: d_006 + 0.2 w_006 >= 1
_C140: w_002 <= 13.000000946
_C141: w_003 >= 12.9999989618
_C142: w_003 <= 13.0000009618
_C143: w_005 >= 1.99999899384
_C144: w_005 <= 2.00000099384
_C145: w_042 >= 0.99999899693
_C146: w_042 <= 1.00000099693
_C147: w_031 >= 0.999998996052
_C148: w_031 <= 1.00000099605
_C149: w_023 >= 2.99999899221
_C15: d_007 - 0.0555555555556 w_007 >= -1
_C150: w_023 <= 3.00000099221
_C151: w_013 >= 0.999998996411
_C152: w_013 <= 1.00000099641
_C16: d_007 + 0.0555555555556 w_007 >= 1
_C17: d_008 - 0.5 w_008 >= -1
_C18: d_008 + 0.5 w_008 >= 1
_C19: d_009 - 0.5 w_009 >= -1
_C2: d_000 + 0.0526315789474 w_000 >= 1
_C20: d_009 + 0.5 w_009 >= 1
_C21: d_010 - 0.111111111111 w_010 >= -1
_C22: d_010 + 0.111111111111 w_010 >= 1
_C23: d_011 - 0.0333333333333 w_011 >= -1
_C24: d_011 + 0.0333333333333 w_011 >= 1
_C25: d_012 - w_012 >= -1
_C26: d_012 + w_012 >= 1
_C27: d_013 - w_013 >= -1
_C28: d_013 + w_013 >= 1
_C29: d_014 - 0.0833333333333 w_014 >= -1
_C3: d_001 - 0.2 w_001 >= -1
_C30: d_014 + 0.0833333333333 w_014 >= 1
_C31: d_015 - 0.0625 w_015 >= -1
_C32: d_015 + 0.0625 w_015 >= 1
_C33: d_016 - 0.0454545454545 w_016 >= -1
_C34: d_016 + 0.0454545454545 w_016 >= 1
_C35: d_017 - w_017 >= -1
_C36: d_017 + w_017 >= 1
_C37: d_018 - 0.333333333333 w_018 >= -1
_C38: d_018 + 0.333333333333 w_018 >= 1
_C39: d_019 - 0.5 w_019 >= -1
_C4: d_001 + 0.2 w_001 >= 1
_C40: d_019 + 0.5 w_019 >= 1
_C41: d_020 - 0.05 w_020 >= -1
_C42: d_020 + 0.05 w_020 >= 1
_C43: d_021 - 0.0833333333333 w_021 >= -1
_C44: d_021 + 0.0833333333333 w_021 >= 1
_C45: d_022 - 0.333333333333 w_022 >= -1
_C46: d_022 + 0.333333333333 w_022 >= 1
_C47: d_023 - 0.333333333333 w_023 >= -1
_C48: d_023 + 0.333333333333 w_023 >= 1
_C49: d_024 - 0.166666666667 w_024 >= -1
_C5: d_002 - 0.0769230769231 w_002 >= -1
_C50: d_024 + 0.166666666667 w_024 >= 1
_C51: d_025 - w_025 >= -1
_C52: d_025 + w_025 >= 1
_C53: d_026 - 0.0333333333333 w_026 >= -1
_C54: d_026 + 0.0333333333333 w_026 >= 1
_C55: d_027 - w_027 >= -1
_C56: d_027 + w_027 >= 1
_C57: d_028 - 0.125 w_028 >= -1
_C58: d_028 + 0.125 w_028 >= 1
_C59: d_029 - 0.5 w_029 >= -1
_C6: d_002 + 0.0769230769231 w_002 >= 1
_C60: d_029 + 0.5 w_029 >= 1
_C61: d_030 - w_030 >= -1
_C62: d_030 + w_030 >= 1
_C63: d_031 - w_031 >= -1
_C64: d_031 + w_031 >= 1
_C65: d_032 - w_032 >= -1
_C66: d_032 + w_032 >= 1
_C67: d_033 - 0.25 w_033 >= -1
_C68: d_033 + 0.25 w_033 >= 1
_C69: d_034 - w_034 >= -1
_C7: d_003 - 0.0769230769231 w_003 >= -1
_C70: d_034 + w_034 >= 1
_C71: d_035 - 0.5 w_035 >= -1
_C72: d_035 + 0.5 w_035 >= 1
_C73: d_036 - 0.0454545454545 w_036 >= -1
_C74: d_036 + 0.0454545454545 w_036 >= 1
_C75: d_037 - 0.25 w_037 >= -1
_C76: d_037 + 0.25 w_037 >= 1
_C77: d_038 - 0.5 w_038 >= -1
_C78: d_038 + 0.5 w_038 >= 1
_C79: d_039 - 0.05 w_039 >= -1
_C8: d_003 + 0.0769230769231 w_003 >= 1
_C80: d_039 + 0.05 w_039 >= 1
_C81: d_040 - w_040 >= -1
_C82: d_040 + w_040 >= 1
_C83: d_041 - w_041 >= -1
_C84: d_041 + w_041 >= 1
_C85: d_042 - w_042 >= -1
_C86: d_042 + w_042 >= 1
_C87: d_043 - 0.047619047619 w_043 >= -1
_C88: d_043 + 0.047619047619 w_043 >= 1
_C89: d_044 - 0.0714285714286 w_044 >= -1
_C9: d_004 - w_004 >= -1
_C90: d_044 + 0.0714285714286 w_044 >= 1
_C91: d_045 - w_045 >= -1
_C92: d_045 + w_045 >= 1
_C93: d_046 - w_046 >= -1
_C94: d_046 + w_046 >= 1
_C95: d_047 - 0.25 w_047 >= -1
_C96: d_047 + 0.25 w_047 >= 1
_C97: 0.00274010138375 w_000 + 0.00260309631456 w_001 + 0.00274010138375 w_002
 + 0.00274010138375 w_003 + 0.00287710645294 w_004 + 0.00274010138375 w_005
 + 0.00274010138375 w_006 + 0.00287710645294 w_007 + 0.00287710645294 w_008
 + 0.00274010138375 w_009 + 0.00287710645294 w_010 + 0.00260309631456 w_011
 + 0.00287710645294 w_012 + 0.00287710645294 w_013 + 0.00274010138375 w_014
 + 0.00274010138375 w_015 + 0.00274010138375 w_016 + 0.00274010138375 w_017
 + 0.00274010138375 w_018 + 0.00274010138375 w_019 + 0.00287710645294 w_020
 + 0.00287710645294 w_021 + 0.00260309631456 w_022 + 0.00287710645294 w_023
 + 0.00274010138375 w_024 + 0.00274010138375 w_025 + 0.00274010138375 w_026
 + 0.00274010138375 w_027 + 0.00260309631456 w_028 + 0.00260309631456 w_029
 + 0.00274010138375 w_030 + 0.00260309631456 w_031 + 0.00260309631456 w_032
 + 0.00260309631456 w_033 + 0.00287710645294 w_034 + 0.00274010138375 w_035
 + 0.00260309631456 w_036 + 0.00287710645294 w_037 + 0.00260309631456 w_038
 + 0.00260309631456 w_039 + 0.00260309631456 w_040 + 0.00260309631456 w_041
 + 0.00287710645294 w_042 + 0.00287710645294 w_043 + 0.00274010138375 w_044
 + 0.00287710645294 w_045 + 0.00260309631456 w_046 + 0.00260309631456 w_047
 - worst_relative_error <= 1
_C98: - 0.00274010138375 w_000 - 0.00260309631456 w_001
 - 0.00274010138375 w_002 - 0.00274010138375 w_003 - 0.00287710645294 w_004
 - 0.00274010138375 w_005 - 0.00274010138375 w_006 - 0.00287710645294 w_007
 - 0.00287710645294 w_008 - 0.00274010138375 w_009 - 0.00287710645294 w_010
 - 0.00260309631456 w_011 - 0.00287710645294 w_012 - 0.00287710645294 w_013
 - 0.00274010138375 w_014 - 0.00274010138375 w_015 - 0.00274010138375 w_016
 - 0.00274010138375 w_017 - 0.00274010138375 w_018 - 0.00274010138375 w_019
 - 0.00287710645294 w_020 - 0.00287710645294 w_021 - 0.00260309631456 w_022
 - 0.00287710645294 w_023 - 0.00274010138375 w_024 - 0.00274010138375 w_025
 - 0.00274010138375 w_026 - 0.00274010138375 w_027 - 0.00260309631456 w_028
 - 0.00260309631456 w_029 - 0.00274010138375 w_030 - 0.00260309631456 w_031
 - 0.00260309631456 w_032 - 0.00260309631456 w_033 - 0.00287710645294 w_034
 - 0.00274010138375 w_035 - 0.00260309631456 w_036 - 0.00287710645294 w_037
 - 0.00260309631456 w_038 - 0.00260309631456 w_039 - 0.00260309631456 w_040
 - 0.00260309631456 w_041 - 0.00287710645294 w_042 - 0.00287710645294 w_043
 - 0.00274010138375 w_044 - 0.00287710645294 w_045 - 0.00260309631456 w_046
 - 0.00260309631456 w_047 - worst_relative_error <= -1
_C99: 0.000853037902087 w_000 + 0.00558312548435 w_001
 + 0.00159129239945 w_002 + 0.00326804028523 w_003 + 0.0157173371181 w_004
 + 0.0101072097226 w_005 + 0.0101813385646 w_006 + 0.000550151296663 w_007
 + 0.00801865741037 w_008 + 0.0109740014071 w_009 + 0.0051967048769 w_010
 + 0.000209846312606 w_011 + 0.0132699728939 w_012 + 0.0122054705872 w_013
 + 0.00298993071431 w_014 + 0.00035031692861 w_015 + 0.000275480171344 w_016
 + 0.023738219405 w_017 + 0.0101955980008 w_018 + 0.00845068798746 w_019
 + 0.00188588628312 w_020 + 0.000741490681458 w_021 + 0.0131501329515 w_022
 + 0.0107274446312 w_023 + 0.00409377288399 w_024 + 0.0149962748487 w_025
 + 0.000504541327032 w_026 + 0.00874639430941 w_027 + 0.00392599696466 w_028
 + 0.00358012978919 w_029 + 0.0117398646001 w_030 + 0.00765772175269 w_031
 + 0.0157491933053 w_032 + 0.00590462014834 w_033 + 0.011927057624 w_034
 + 0.00908963208531 w_035 + 0.000720556615574 w_036 + 0.00500324174629 w_037
 + 0.00783621753185 w_038 + 0.000412613472497 w_039 + 0.00919834764485 w_040
 + 0.0148113067014 w_041 + 0.0191490069617 w_042 + 9.10176777568e-05 w_043
 + 0.000267693103358 w_044 + 0.00684948477421 w_045 + 0.0101644497289 w_046
 + 0.00572106783153 w_047 - worst_relative_error <= 1
primary_optimum_band: worst_relative_error <= 1e-06
secondary_optimum_band: d_000 + d_001 + d_002 + d_003 + d_004 + d_005 + d_006
 + d_007 + d_008 + d_009 + d_010 + d_011 + d_012 + d_013 + d_014 + d_015
 + d_016 + d_017 + d_018 + d_019 + d_020 + d_021 + d_022 + d_023 + d_024
 + d_025 + d_026 + d_027 + d_028 + d_029 + d_030 + d_031 + d_032 + d_033
 + d_034 + d_035 + d_036 + d_037 + d_038 + d_039 + d_040 + d_041 + d_042
 + d_043 + d_044 + d_045 + d_046 + d_047 <= 2.69249937091
total_days: w_000 + w_001 + w_002 + w_003 + w_004 + w_005 + w_006 + w_007
 + w_008 + w_009 + w_010 + w_011 + w_012 + w_013 + w_014 + w_015 + w_016
 + w_017 + w_018 + w_019 + w_020 + w_021 + w_022 + w_023 + w_024 + w_025
 + w_026 + w_027 + w_028 + w_029 + w_030 + w_031 + w_032 + w_033 + w_034
 + w_035 + w_036 + w_037 + w_038 + w_039 + w_040 + w_041 + w_042 + w_043
 + w_044 + w_045 + w_046 + w_047 = 365
Bounds
 9.5 <= w_000 <= 38
 2.5 <= w_001 <= 10
 6.5 <= w_002 <= 26
 6.5 <= w_003 <= 26
 0.5 <= w_004 <= 2
 1 <= w_005 <= 4
 2.5 <= w_006 <= 10
 9 <= w_007 <= 36
 1 <= w_008 <= 4
 1 <= w_009 <= 4
 4.5 <= w_010 <= 18
 15 <= w_011 <= 60
 0.5 <= w_012 <= 2
 0.5 <= w_013 <= 2
 6 <= w_014 <= 24
 8 <= w_015 <= 32
 11 <= w_016 <= 44
 0.5 <= w_017 <= 2
 1.5 <= w_018 <= 6
 1 <= w_019 <= 4
 10 <= w_020 <= 40
 6 <= w_021 <= 24
 1.5 <= w_022 <= 6
 1.5 <= w_023 <= 6
 3 <= w_024 <= 12
 0.5 <= w_025 <= 2
 15 <= w_026 <= 60
 0.5 <= w_027 <= 2
 4 <= w_028 <= 16
 1 <= w_029 <= 4
 0.5 <= w_030 <= 2
 0.5 <= w_031 <= 2
 0.5 <= w_032 <= 2
 2 <= w_033 <= 8
 0.5 <= w_034 <= 2
 1 <= w_035 <= 4
 11 <= w_036 <= 44
 2 <= w_037 <= 8
 1 <= w_038 <= 4
 10 <= w_039 <= 40
 0.5 <= w_040 <= 2
 0.5 <= w_041 <= 2
 0.5 <= w_042 <= 2
 10.5 <= w_043 <= 42
 7 <= w_044 <= 28
 0.5 <= w_045 <= 2
 0.5 <= w_046 <= 2
 2 <= w_047 <= 8
End
