\* U11R08_energy_weights *\
Minimize
OBJ: w_022
Subject To
_C1: d_000 - 0.05 w_000 >= -1
_C10: d_004 + 0.25 w_004 >= 1
_C11: d_005 - 0.333333333333 w_005 >= -1
_C12: d_005 + 0.333333333333 w_005 >= 1
_C13: d_006 - 0.25 w_006 >= -1
_C14: d_006 + 0.25 w_006 >= 1
_C15: d_007 - 0.25 w_007 >= -1
_C16: d_007 + 0.25 w_007 >= 1
_C17: d_008 - 0.0555555555556 w_008 >= -1
_C18: d_008 + 0.0555555555556 w_008 >= 1
_C19: d_009 - 0.0357142857143 w_009 >= -1
_C2: d_000 + 0.05 w_000 >= 1
_C20: d_009 + 0.0357142857143 w_009 >= 1
_C21: d_010 - 0.0232558139535 w_010 >= -1
_C22: d_010 + 0.0232558139535 w_010 >= 1
_C23: d_011 - 0.5 w_011 >= -1
_C24: d_011 + 0.5 w_011 >= 1
_C25: d_012 - 0.166666666667 w_012 >= -1
_C26: d_012 + 0.166666666667 w_012 >= 1
_C27: d_013 - 0.0666666666667 w_013 >= -1
_C28: d_013 + 0.0666666666667 w_013 >= 1
_C29: d_014 - 0.0555555555556 w_014 >= -1
_C3: d_001 - 0.037037037037 w_001 >= -1
_C30: d_014 + 0.0555555555556 w_014 >= 1
_C31: d_015 - 0.0243902439024 w_015 >= -1
_C32: d_015 + 0.0243902439024 w_015 >= 1
_C33: d_016 - 0.166666666667 w_016 >= -1
_C34: d_016 + 0.166666666667 w_016 >= 1
_C35: d_017 - 0.166666666667 w_017 >= -1
_C36: d_017 + 0.166666666667 w_017 >= 1
_C37: d_018 - 0.037037037037 w_018 >= -1
_C38: d_018 + 0.037037037037 w_018 >= 1
_C39: d_019 - 0.125 w_019 >= -1
_C4: d_001 + 0.037037037037 w_001 >= 1
_C40: d_019 + 0.125 w_019 >= 1
_C41: d_020 - 0.333333333333 w_020 >= -1
_C42: d_020 + 0.333333333333 w_020 >= 1
_C43: d_021 - 0.0344827586207 w_021 >= -1
_C44: d_021 + 0.0344827586207 w_021 >= 1
_C45: d_022 - 0.333333333333 w_022 >= -1
_C46: d_022 + 0.333333333333 w_022 >= 1
_C47: d_023 - 0.0833333333333 w_023 >= -1
_C48: d_023 + 0.0833333333333 w_023 >= 1
_C49: 0.00260309631456 w_000 + 0.00287710645294 w_001 + 0.00287710645294 w_002
 + 0.00287710645294 w_003 + 0.00274010138375 w_004 + 0.00287710645294 w_005
 + 0.00287710645294 w_006 + 0.00260309631456 w_007 + 0.00274010138375 w_008
 + 0.00260309631456 w_009 + 0.00274010138375 w_010 + 0.00274010138375 w_011
 + 0.00274010138375 w_012 + 0.00274010138375 w_013 + 0.00274010138375 w_014
 + 0.00274010138375 w_015 + 0.00274010138375 w_016 + 0.00287710645294 w_017
 + 0.00287710645294 w_018 + 0.00287710645294 w_019 + 0.00287710645294 w_020
 + 0.00260309631456 w_021 + 0.00260309631456 w_022 + 0.00260309631456 w_023
 - worst_relative_error <= 1
_C5: d_002 - 0.0277777777778 w_002 >= -1
_C50: - 0.00260309631456 w_000 - 0.00287710645294 w_001
 - 0.00287710645294 w_002 - 0.00287710645294 w_003 - 0.00274010138375 w_004
 - 0.00287710645294 w_005 - 0.00287710645294 w_006 - 0.00260309631456 w_007
 - 0.00274010138375 w_008 - 0.00260309631456 w_009 - 0.00274010138375 w_010
 - 0.00274010138375 w_011 - 0.00274010138375 w_012 - 0.00274010138375 w_013
 - 0.00274010138375 w_014 - 0.00274010138375 w_015 - 0.00274010138375 w_016
 - 0.00287710645294 w_017 - 0.00287710645294 w_018 - 0.00287710645294 w_019
 - 0.00287710645294 w_020 - 0.00260309631456 w_021 - 0.00260309631456 w_022
 - 0.00260309631456 w_023 - worst_relative_error <= -1
_C51: 0.00252695412679 w_000 + 5.88580982827e-05 w_001
 + 0.000550151296663 w_002 + 0.0157173371181 w_003 + 0.0103231238804 w_004
 + 0.00713780855119 w_005 + 0.0117551353438 w_006 + 0.00711950388489 w_007
 + 0.00406039973548 w_008 + 0.000209846312606 w_009 + 0.00116189122194 w_010
 + 0.023738219405 w_011 + 0.00872869642763 w_012 + 0.00430341693509 w_013
 + 0.000853037902087 w_014 + 0.000310774804163 w_015 + 0.0101955980008 w_016
 + 0.0104965631219 w_017 + 0.00127515766537 w_018 + 0.00500324174629 w_019
 + 0.0128335936945 w_020 + 0.000892074372769 w_021 + 0.0148113067014 w_022
 + 0.00206579789282 w_023 - worst_relative_error <= 1
_C52: - 0.00252695412679 w_000 - 5.88580982827e-05 w_001
 - 0.000550151296663 w_002 - 0.0157173371181 w_003 - 0.0103231238804 w_004
 - 0.00713780855119 w_005 - 0.0117551353438 w_006 - 0.00711950388489 w_007
 - 0.00406039973548 w_008 - 0.000209846312606 w_009 - 0.00116189122194 w_010
 - 0.023738219405 w_011 - 0.00872869642763 w_012 - 0.00430341693509 w_013
 - 0.000853037902087 w_014 - 0.000310774804163 w_015 - 0.0101955980008 w_016
 - 0.0104965631219 w_017 - 0.00127515766537 w_018 - 0.00500324174629 w_019
 - 0.0128335936945 w_020 - 0.000892074372769 w_021 - 0.0148113067014 w_022
 - 0.00206579789282 w_023 - worst_relative_error <= -1
_C53: 0.00106645928998 w_000 + 0.00462667259171 w_001 + 0.00259517108577 w_002
 + 0.00127931664445 w_003 + 0.00493961388436 w_004 + 0.00461437811682 w_005
 + 0.000324198884116 w_006 + 0.0018404187034 w_007 + 0.00420298227423 w_008
 + 0.00311583469116 w_009 + 0.0010210339209 w_010 + 0.000414506492865 w_011
 + 0.000928257542093 w_012 + 0.00203604404286 w_013 + 0.003109169012 w_014
 + 0.00181642225843 w_015 + 0.000412037722806 w_016 + 0.000576013430109 w_017
 + 0.00326006023799 w_018 + 0.00300207376685 w_019 + 0.00280417715894 w_020
 + 0.00404379598084 w_021 + 0.00408561694564 w_022 + 0.00521088233842 w_023
 - worst_relative_error <= 1
_C54: - 0.00106645928998 w_000 - 0.00462667259171 w_001
 - 0.00259517108577 w_002 - 0.00127931664445 w_003 - 0.00493961388436 w_004
 - 0.00461437811682 w_005 - 0.000324198884116 w_006 - 0.0018404187034 w_007
 - 0.00420298227423 w_008 - 0.00311583469116 w_009 - 0.0010210339209 w_010
 - 0.000414506492865 w_011 - 0.000928257542093 w_012 - 0.00203604404286 w_013
 - 0.003109169012 w_014 - 0.00181642225843 w_015 - 0.000412037722806 w_016
 - 0.000576013430109 w_017 - 0.00326006023799 w_018 - 0.00300207376685 w_019
 - 0.00280417715894 w_020 - 0.00404379598084 w_021 - 0.00408561694564 w_022
 - 0.00521088233842 w_023 - worst_relative_error <= -1
_C55: w_011 >= 1.99999794015
_C56: w_011 <= 1.99999994015
_C57: w_016 >= 10.0804751991
_C58: w_016 <= 10.0804771991
_C59: w_009 >= 27.9999987927
_C6: d_002 + 0.0277777777778 w_002 >= 1
_C60: w_009 <= 28.0000007927
_C61: w_015 >= 36.7006525881
_C62: w_015 <= 36.7006545881
_C63: w_021 >= 30.6057149155
_C64: w_021 <= 30.6057169155
_C65: w_003 >= 1.99999899609
_C66: w_003 <= 2.00000099609
_C67: w_005 >= 2.99999899322
_C68: w_005 <= 3.00000099322
_C69: w_004 >= 3.99999899345
_C7: d_003 - 0.5 w_003 >= -1
_C70: w_004 <= 4.00000099345
_C71: w_008 >= 35.9999988417
_C72: w_008 <= 36
_C73: w_013 >= 14.999998977
_C74: w_013 <= 15.000000977
_C75: w_019 >= 7.99999898342
_C76: w_019 <= 8.00000098342
_C8: d_003 + 0.5 w_003 >= 1
_C9: d_004 - 0.25 w_004 >= -1
primary_optimum_band: worst_relative_error <= 1e-06
secondary_optimum_band: d_000 + d_001 + d_002 + d_003 + d_004 + d_005 + d_006
 + d_007 + d_008 + d_009 + d_010 + d_011 + d_012 + d_013 + d_014 + d_015
 + d_016 + d_017 + d_018 + d_019 + d_020 + d_021 + d_022 + d_023
 <= 2.39170070954
total_days: w_000 + w_001 + w_002 + w_003 + w_004 + w_005 + w_006 + w_007
 + w_008 + w_009 + w_010 + w_011 + w_012 + w_013 + w_014 + w_015 + w_016
 + w_017 + w_018 + w_019 + w_020 + w_021 + w_022 + w_023 = 365
Bounds
 10 <= w_000 <= 40
 13.5 <= w_001 <= 54
 18 <= w_002 <= 72
 1 <= w_003 <= 4
 2 <= w_004 <= 8
 1.5 <= w_005 <= 6
 2 <= w_006 <= 8
 2 <= w_007 <= 8
 9 <= w_008 <= 36
 14 <= w_009 <= 56
 21.5 <= w_010 <= 86
 1 <= w_011 <= 4
 3 <= w_012 <= 12
 7.5 <= w_013 <= 30
 9 <= w_014 <= 36
 20.5 <= w_015 <= 82
 3 <= w_016 <= 12
 3 <= w_017 <= 12
 13.5 <= w_018 <= 54
 4 <= w_019 <= 16
 1.5 <= w_020 <= 6
 14.5 <= w_021 <= 58
 1.5 <= w_022 <= 6
 6 <= w_023 <= 24
End
