*SENSE:Minimize
NAME          MODEL
ROWS
 N  OBJ
 E  C0000000
 L  C0000001
 L  C0000002
 L  C0000003
 L  C0000004
 L  C0000005
 L  C0000006
 L  C0000007
 L  C0000008
COLUMNS
    X0000000  C0000000   1.000000000000e+00
    X0000000  C0000001   2.740101383751e-03
    X0000000  C0000002  -2.740101383751e-03
    X0000000  C0000003   4.626731952636e-04
    X0000000  C0000004  -4.626731952636e-04
    X0000000  C0000005   2.810892213499e-03
    X0000000  C0000006  -2.810892213499e-03
    X0000000  C0000007   3.484033384428e-03
    X0000000  C0000008  -3.484033384428e-03
    X0000001  C0000000   1.000000000000e+00
    X0000001  C0000001   2.740101383751e-03
    X0000001  C0000002  -2.740101383751e-03
    X0000001  C0000003   5.749283311636e-03
    X0000001  C0000004  -5.749283311636e-03
    X0000001  C0000005   2.268651557794e-03
    X0000001  C0000006  -2.268651557794e-03
    X0000001  C0000007   2.134408051849e-03
    X0000001  C0000008  -2.134408051849e-03
    X0000002  C0000000   1.000000000000e+00
    X0000002  C0000001   2.877106452939e-03
    X0000002  C0000002  -2.877106452939e-03
    X0000002  C0000003   3.789571578779e-03
    X0000002  C0000004  -3.789571578779e-03
    X0000002  C0000005   4.645385868760e-03
    X0000002  C0000006  -4.645385868760e-03
    X0000002  C0000007   2.120436125060e-03
    X0000002  C0000008  -2.120436125060e-03
    X0000003  C0000000   1.000000000000e+00
    X0000003  C0000001   2.740101383751e-03
    X0000003  C0000002  -2.740101383751e-03
    X0000003  C0000003   3.268040285233e-03
    X0000003  C0000004  -3.268040285233e-03
    X0000003  C0000005   4.491680244902e-04
    X0000003  C0000006  -4.491680244902e-04
    X0000003  C0000007   1.983385652181e-03
    X0000003  C0000008  -1.983385652181e-03
    X0000004  C0000000   1.000000000000e+00
    X0000004  C0000001   2.877106452939e-03
    X0000004  C0000002  -2.877106452939e-03
    X0000004  C0000003   1.571733711805e-02
    X0000004  C0000004  -1.571733711805e-02
    X0000004  C0000005   1.279316644448e-03
    X0000004  C0000006  -1.279316644448e-03
    X0000005  C0000000   1.000000000000e+00
    X0000005  C0000001   2.740101383751e-03
    X0000005  C0000002  -2.740101383751e-03
    X0000005  C0000003   1.010720972263e-02
    X0000005  C0000004  -1.010720972263e-02
    X0000005  C0000005   2.110255270824e-03
    X0000005  C0000006  -2.110255270824e-03
    X0000006  C0000000   1.000000000000e+00
    X0000006  C0000001   2.740101383751e-03
    X0000006  C0000002  -2.740101383751e-03
    X0000006  C0000003   1.047330304872e-02
    X0000006  C0000004  -1.047330304872e-02
    X0000006  C0000005   4.213844862490e-03
    X0000006  C0000006  -4.213844862490e-03
    X0000006  C0000007   7.011081464811e-04
    X0000006  C0000008  -7.011081464811e-04
    X0000007  C0000000   1.000000000000e+00
    X0000007  C0000001   2.877106452939e-03
    X0000007  C0000002  -2.877106452939e-03
    X0000007  C0000003   9.876429344140e-04
    X0000007  C0000004  -9.876429344140e-04
    X0000007  C0000005   2.472818841653e-03
    X0000007  C0000006  -2.472818841653e-03
    X0000007  C0000007   5.191277247612e-03
    X0000007  C0000008  -5.191277247612e-03
    X0000008  C0000000   1.000000000000e+00
    X0000008  C0000001   2.877106452939e-03
    X0000008  C0000002  -2.877106452939e-03
    X0000008  C0000003   8.018657410371e-03
    X0000008  C0000004  -8.018657410371e-03
    X0000008  C0000005   3.119044092233e-04
    X0000008  C0000006  -3.119044092233e-04
    X0000008  C0000007   2.611023442067e-03
    X0000008  C0000008  -2.611023442067e-03
    X0000009  C0000000   1.000000000000e+00
    X0000009  C0000001   2.740101383751e-03
    X0000009  C0000002  -2.740101383751e-03
    X0000009  C0000003   1.097400140713e-02
    X0000009  C0000004  -1.097400140713e-02
    X0000009  C0000005   2.466449414901e-03
    X0000009  C0000006  -2.466449414901e-03
    X0000009  C0000007   1.436753640079e-03
    X0000009  C0000008  -1.436753640079e-03
    X0000010  C0000000   1.000000000000e+00
    X0000010  C0000001   2.603096314564e-03
    X0000010  C0000002  -2.603096314564e-03
    X0000010  C0000003   4.797339533053e-03
    X0000010  C0000004  -4.797339533053e-03
    X0000010  C0000005   3.520367352985e-03
    X0000010  C0000006  -3.520367352985e-03
    X0000010  C0000007   6.588783902331e-04
    X0000010  C0000008  -6.588783902331e-04
    X0000011  C0000000   1.000000000000e+00
    X0000011  C0000001   2.603096314564e-03
    X0000011  C0000002  -2.603096314564e-03
    X0000011  C0000003   6.787896145593e-04
    X0000011  C0000004  -6.787896145593e-04
    X0000011  C0000005   3.787685774947e-03
    X0000011  C0000006  -3.787685774947e-03
    X0000011  C0000007   2.567537782288e-03
    X0000011  C0000008  -2.567537782288e-03
    X0000012  C0000000   1.000000000000e+00
    X0000012  C0000001   2.877106452939e-03
    X0000012  C0000002  -2.877106452939e-03
    X0000012  C0000003   1.326997289392e-02
    X0000012  C0000004  -1.326997289392e-02
    X0000012  C0000005   2.084333185207e-03
    X0000012  C0000006  -2.084333185207e-03
    X0000012  C0000007   4.957679190746e-04
    X0000012  C0000008  -4.957679190746e-04
    X0000013  C0000000   1.000000000000e+00
    X0000013  C0000001   2.877106452939e-03
    X0000013  C0000002  -2.877106452939e-03
    X0000013  C0000003   1.220547058718e-02
    X0000013  C0000004  -1.220547058718e-02
    X0000013  C0000005   1.440774206290e-03
    X0000013  C0000006  -1.440774206290e-03
    X0000013  C0000007   1.018851739960e-04
    X0000013  C0000008  -1.018851739960e-04
    X0000014  C0000000   1.000000000000e+00
    X0000014  C0000001   2.740101383751e-03
    X0000014  C0000002  -2.740101383751e-03
    X0000014  C0000003   3.113512494553e-03
    X0000014  C0000004  -3.113512494553e-03
    X0000014  C0000005   2.076433121019e-03
    X0000014  C0000006  -2.076433121019e-03
    X0000014  C0000007   1.777103497126e-03
    X0000014  C0000008  -1.777103497126e-03
    X0000015  C0000000   1.000000000000e+00
    X0000015  C0000001   2.740101383751e-03
    X0000015  C0000002  -2.740101383751e-03
    X0000015  C0000003   1.482576839905e-04
    X0000015  C0000004  -1.482576839905e-04
    X0000015  C0000005   3.737224114946e-03
    X0000015  C0000006  -3.737224114946e-03
    X0000015  C0000007   3.907743838380e-03
    X0000015  C0000008  -3.907743838380e-03
    X0000016  C0000000   1.000000000000e+00
    X0000016  C0000001   2.740101383751e-03
    X0000016  C0000002  -2.740101383751e-03
    X0000016  C0000003   5.570281878714e-04
    X0000016  C0000004  -5.570281878714e-04
    X0000016  C0000005   1.311509406014e-03
    X0000016  C0000006  -1.311509406014e-03
    X0000016  C0000007   3.772420232857e-03
    X0000016  C0000008  -3.772420232857e-03
    X0000017  C0000000   1.000000000000e+00
    X0000017  C0000001   2.740101383751e-03
    X0000017  C0000002  -2.740101383751e-03
    X0000017  C0000003   2.373821940499e-02
    X0000017  C0000004  -2.373821940499e-02
    X0000017  C0000005   4.145064928653e-04
    X0000017  C0000006  -4.145064928653e-04
    X0000018  C0000000   1.000000000000e+00
    X0000018  C0000001   2.877106452939e-03
    X0000018  C0000002  -2.877106452939e-03
    X0000018  C0000003   1.125726864646e-02
    X0000018  C0000004  -1.125726864646e-02
    X0000018  C0000005   4.842739347257e-04
    X0000018  C0000006  -4.842739347257e-04
    X0000018  C0000007   1.495938094003e-03
    X0000018  C0000008  -1.495938094003e-03
    X0000019  C0000000   1.000000000000e+00
    X0000019  C0000001   2.740101383751e-03
    X0000019  C0000002  -2.740101383751e-03
    X0000019  C0000003   8.450687987457e-03
    X0000019  C0000004  -8.450687987457e-03
    X0000019  C0000005   1.304251222041e-03
    X0000019  C0000006  -1.304251222041e-03
    X0000019  C0000007   8.741088579504e-04
    X0000019  C0000008  -8.741088579504e-04
    X0000020  C0000000   1.000000000000e+00
    X0000020  C0000001   2.740101383751e-03
    X0000020  C0000002  -2.740101383751e-03
    X0000020  C0000003   7.727400841549e-04
    X0000020  C0000004  -7.727400841549e-04
    X0000020  C0000005   3.573445909248e-03
    X0000020  C0000006  -3.573445909248e-03
    X0000020  C0000007   3.366606404229e-03
    X0000020  C0000008  -3.366606404229e-03
    X0000021  C0000000   1.000000000000e+00
    X0000021  C0000001   2.877106452939e-03
    X0000021  C0000002  -2.877106452939e-03
    X0000021  C0000003   6.483492578874e-04
    X0000021  C0000004  -6.483492578874e-04
    X0000021  C0000005   1.537303115588e-03
    X0000021  C0000006  -1.537303115588e-03
    X0000021  C0000007   5.145122792828e-03
    X0000021  C0000008  -5.145122792828e-03
    X0000022  C0000000   1.000000000000e+00
    X0000022  C0000001   2.603096314564e-03
    X0000022  C0000002  -2.603096314564e-03
    X0000022  C0000003   1.315013295154e-02
    X0000022  C0000004  -1.315013295154e-02
    X0000022  C0000005   1.088530094307e-03
    X0000022  C0000006  -1.088530094307e-03
    X0000023  C0000000   1.000000000000e+00
    X0000023  C0000001   2.877106452939e-03
    X0000023  C0000002  -2.877106452939e-03
    X0000023  C0000003   1.072744463117e-02
    X0000023  C0000004  -1.072744463117e-02
    X0000023  C0000005   1.075099985187e-03
    X0000023  C0000006  -1.075099985187e-03
    X0000023  C0000007   1.004722825230e-05
    X0000023  C0000008  -1.004722825230e-05
    X0000024  C0000000   1.000000000000e+00
    X0000024  C0000001   2.740101383751e-03
    X0000024  C0000002  -2.740101383751e-03
    X0000024  C0000003   4.093772883993e-03
    X0000024  C0000004  -4.093772883993e-03
    X0000024  C0000005   3.749962968449e-03
    X0000024  C0000006  -3.749962968449e-03
    X0000024  C0000007   1.841939516942e-03
    X0000024  C0000008  -1.841939516942e-03
    X0000025  C0000000   1.000000000000e+00
    X0000025  C0000001   2.740101383751e-03
    X0000025  C0000002  -2.740101383751e-03
    X0000025  C0000003   1.499627484871e-02
    X0000025  C0000004  -1.499627484871e-02
    X0000025  C0000005   3.140621142547e-03
    X0000025  C0000006  -3.140621142547e-03
    X0000026  C0000000   1.000000000000e+00
    X0000026  C0000001   2.603096314564e-03
    X0000026  C0000002  -2.603096314564e-03
    X0000026  C0000003   2.117677969141e-04
    X0000026  C0000004  -2.117677969141e-04
    X0000026  C0000005   2.685478694514e-03
    X0000026  C0000006  -2.685478694514e-03
    X0000026  C0000007   2.808985236226e-03
    X0000026  C0000008  -2.808985236226e-03
    X0000027  C0000000   1.000000000000e+00
    X0000027  C0000001   2.740101383751e-03
    X0000027  C0000002  -2.740101383751e-03
    X0000027  C0000003   8.746394309413e-03
    X0000027  C0000004  -8.746394309413e-03
    X0000027  C0000005   3.703155088135e-04
    X0000027  C0000006  -3.703155088135e-04
    X0000027  C0000007   9.260718665678e-04
    X0000027  C0000008  -9.260718665678e-04
    X0000028  C0000000   1.000000000000e+00
    X0000028  C0000001   2.603096314564e-03
    X0000028  C0000002  -2.603096314564e-03
    X0000028  C0000003   3.925996964662e-03
    X0000028  C0000004  -3.925996964662e-03
    X0000028  C0000005   9.445514244803e-04
    X0000028  C0000006  -9.445514244803e-04
    X0000028  C0000007   1.403943160318e-03
    X0000028  C0000008  -1.403943160318e-03
    X0000029  C0000000   1.000000000000e+00
    X0000029  C0000001   2.603096314564e-03
    X0000029  C0000002  -2.603096314564e-03
    X0000029  C0000003   3.580129789186e-03
    X0000029  C0000004  -3.580129789186e-03
    X0000029  C0000005   5.880116525947e-04
    X0000029  C0000006  -5.880116525947e-04
    X0000029  C0000007   4.865056305295e-04
    X0000029  C0000008  -4.865056305295e-04
    X0000030  C0000000   1.000000000000e+00
    X0000030  C0000001   2.740101383751e-03
    X0000030  C0000002  -2.740101383751e-03
    X0000030  C0000003   1.173986460008e-02
    X0000030  C0000004  -1.173986460008e-02
    X0000030  C0000005   3.864810151582e-03
    X0000030  C0000006  -3.864810151582e-03
    X0000030  C0000007   2.337707436016e-03
    X0000030  C0000008  -2.337707436016e-03
    X0000031  C0000000   1.000000000000e+00
    X0000031  C0000001   2.603096314564e-03
    X0000031  C0000002  -2.603096314564e-03
    X0000031  C0000003   7.657721752689e-03
    X0000031  C0000004  -7.657721752689e-03
    X0000031  C0000005   2.123043499728e-03
    X0000031  C0000006  -2.123043499728e-03
    X0000031  C0000007   1.466895324836e-03
    X0000031  C0000008  -1.466895324836e-03
    X0000032  C0000000   1.000000000000e+00
    X0000032  C0000001   2.603096314564e-03
    X0000032  C0000002  -2.603096314564e-03
    X0000032  C0000003   1.574919330527e-02
    X0000032  C0000004  -1.574919330527e-02
    X0000032  C0000005   3.295314274428e-04
    X0000032  C0000006  -3.295314274428e-04
    X0000032  C0000007   3.700205779794e-04
    X0000032  C0000008  -3.700205779794e-04
    X0000033  C0000000   1.000000000000e+00
    X0000033  C0000001   2.603096314564e-03
    X0000033  C0000002  -2.603096314564e-03
    X0000033  C0000003   4.766899176381e-03
    X0000033  C0000004  -4.766899176381e-03
    X0000033  C0000005   5.007603811781e-03
    X0000033  C0000006  -5.007603811781e-03
    X0000033  C0000007   6.036186348454e-04
    X0000033  C0000008  -6.036186348454e-04
    X0000034  C0000000   1.000000000000e+00
    X0000034  C0000001   2.877106452939e-03
    X0000034  C0000002  -2.877106452939e-03
    X0000034  C0000003   1.192705762400e-02
    X0000034  C0000004  -1.192705762400e-02
    X0000034  C0000005   1.165851972547e-03
    X0000034  C0000006  -1.165851972547e-03
    X0000034  C0000007   2.157014315416e-04
    X0000034  C0000008  -2.157014315416e-04
    X0000035  C0000000   1.000000000000e+00
    X0000035  C0000001   2.740101383751e-03
    X0000035  C0000002  -2.740101383751e-03
    X0000035  C0000003   9.089632085309e-03
    X0000035  C0000004  -9.089632085309e-03
    X0000035  C0000005   3.916061818002e-03
    X0000035  C0000006  -3.916061818002e-03
    X0000036  C0000000   1.000000000000e+00
    X0000036  C0000001   2.740101383751e-03
    X0000036  C0000002  -2.740101383751e-03
    X0000036  C0000003   2.817705041843e-03
    X0000036  C0000004  -2.817705041843e-03
    X0000036  C0000005   1.632992643065e-03
    X0000036  C0000006  -1.632992643065e-03
    X0000036  C0000007   2.547286337842e-03
    X0000036  C0000008  -2.547286337842e-03
    X0000037  C0000000   1.000000000000e+00
    X0000037  C0000001   2.877106452939e-03
    X0000037  C0000002  -2.877106452939e-03
    X0000037  C0000003   5.709943448694e-03
    X0000037  C0000004  -5.709943448694e-03
    X0000037  C0000005   2.212363600454e-03
    X0000037  C0000006  -2.212363600454e-03
    X0000037  C0000007   3.464095915865e-03
    X0000037  C0000008  -3.464095915865e-03
    X0000038  C0000000   1.000000000000e+00
    X0000038  C0000001   2.603096314564e-03
    X0000038  C0000002  -2.603096314564e-03
    X0000038  C0000003   7.836217531845e-03
    X0000038  C0000004  -7.836217531845e-03
    X0000038  C0000005   1.030069619316e-03
    X0000038  C0000006  -1.030069619316e-03
    X0000039  C0000000   1.000000000000e+00
    X0000039  C0000001   2.603096314564e-03
    X0000039  C0000002  -2.603096314564e-03
    X0000039  C0000003   4.126134724973e-04
    X0000039  C0000004  -4.126134724973e-04
    X0000039  C0000005   4.671653582185e-03
    X0000039  C0000006  -4.671653582185e-03
    X0000039  C0000007   2.024045529015e-03
    X0000039  C0000008  -2.024045529015e-03
    X0000040  C0000000   1.000000000000e+00
    X0000040  C0000001   2.603096314564e-03
    X0000040  C0000002  -2.603096314564e-03
    X0000040  C0000003   9.198347644852e-03
    X0000040  C0000004  -9.198347644852e-03
    X0000040  C0000005   1.541055646077e-03
    X0000040  C0000006  -1.541055646077e-03
    X0000040  C0000007   5.651565891921e-04
    X0000040  C0000008  -5.651565891921e-04
    X0000041  C0000000   1.000000000000e+00
    X0000041  C0000001   2.603096314564e-03
    X0000041  C0000002  -2.603096314564e-03
    X0000041  C0000003   1.481130670136e-02
    X0000041  C0000004  -1.481130670136e-02
    X0000041  C0000005   4.085616945638e-03
    X0000041  C0000006  -4.085616945638e-03
    X0000042  C0000000   1.000000000000e+00
    X0000042  C0000001   2.877106452939e-03
    X0000042  C0000002  -2.877106452939e-03
    X0000042  C0000003   1.914900696174e-02
    X0000042  C0000004  -1.914900696174e-02
    X0000042  C0000005   1.880857156964e-03
    X0000042  C0000006  -1.880857156964e-03
    X0000042  C0000007   2.045552876992e-04
    X0000042  C0000008  -2.045552876992e-04
    X0000043  C0000000   1.000000000000e+00
    X0000043  C0000001   2.877106452939e-03
    X0000043  C0000002  -2.877106452939e-03
    X0000043  C0000003   8.274518215621e-04
    X0000043  C0000004  -8.274518215621e-04
    X0000043  C0000005   5.349133461709e-03
    X0000043  C0000006  -5.349133461709e-03
    X0000043  C0000007   4.098327199291e-03
    X0000043  C0000008  -4.098327199291e-03
    X0000044  C0000000   1.000000000000e+00
    X0000044  C0000001   2.740101383751e-03
    X0000044  C0000002  -2.740101383751e-03
    X0000044  C0000003   1.608990281233e-04
    X0000044  C0000004  -1.608990281233e-04
    X0000044  C0000005   7.494692144374e-04
    X0000044  C0000006  -7.494692144374e-04
    X0000044  C0000007   4.362223928856e-03
    X0000044  C0000008  -4.362223928856e-03
    X0000045  C0000000   1.000000000000e+00
    X0000045  C0000001   2.877106452939e-03
    X0000045  C0000002  -2.877106452939e-03
    X0000045  C0000003   6.849484774209e-03
    X0000045  C0000004  -6.849484774209e-03
    X0000045  C0000005   2.343455290574e-03
    X0000045  C0000006  -2.343455290574e-03
    X0000045  C0000007   4.097385271643e-04
    X0000045  C0000008  -4.097385271643e-04
    X0000046  C0000000   1.000000000000e+00
    X0000046  C0000001   2.603096314564e-03
    X0000046  C0000002  -2.603096314564e-03
    X0000046  C0000003   1.016444972886e-02
    X0000046  C0000004  -1.016444972886e-02
    X0000046  C0000005   2.077914383054e-03
    X0000046  C0000006  -2.077914383054e-03
    X0000046  C0000007   1.998456494560e-04
    X0000046  C0000008  -1.998456494560e-04
    X0000047  C0000000   1.000000000000e+00
    X0000047  C0000001   2.603096314564e-03
    X0000047  C0000002  -2.603096314564e-03
    X0000047  C0000003   5.721067831531e-03
    X0000047  C0000004  -5.721067831531e-03
    X0000047  C0000005   3.327902039204e-03
    X0000047  C0000006  -3.327902039204e-03
    X0000047  C0000007   7.072306761973e-04
    X0000047  C0000008  -7.072306761973e-04
    X0000048  C0000001  -1.000000000000e+00
    X0000048  C0000002  -1.000000000000e+00
    X0000048  C0000003  -1.000000000000e+00
    X0000048  C0000004  -1.000000000000e+00
    X0000048  C0000005  -1.000000000000e+00
    X0000048  C0000006  -1.000000000000e+00
    X0000048  C0000007  -1.000000000000e+00
    X0000048  C0000008  -1.000000000000e+00
    X0000048  OBJ        1.000000000000e+00
RHS
    RHS       C0000000   3.650000000000e+02
    RHS       C0000001   1.000000000000e+00
    RHS       C0000002  -1.000000000000e+00
    RHS       C0000003   1.000000000000e+00
    RHS       C0000004  -1.000000000000e+00
    RHS       C0000005   1.000000000000e+00
    RHS       C0000006  -1.000000000000e+00
    RHS       C0000007   1.000000000000e+00
    RHS       C0000008  -1.000000000000e+00
BOUNDS
 LO BND       X0000000   9.500000000000e+00
 UP BND       X0000000   3.800000000000e+01
 LO BND       X0000001   2.500000000000e+00
 UP BND       X0000001   1.000000000000e+01
 LO BND       X0000002   6.500000000000e+00
 UP BND       X0000002   2.600000000000e+01
 LO BND       X0000003   6.500000000000e+00
 UP BND       X0000003   2.600000000000e+01
 LO BND       X0000004   5.000000000000e-01
 UP BND       X0000004   2.000000000000e+00
 LO BND       X0000005   1.000000000000e+00
 UP BND       X0000005   4.000000000000e+00
 LO BND       X0000006   2.500000000000e+00
 UP BND       X0000006   1.000000000000e+01
 LO BND       X0000007   9.000000000000e+00
 UP BND       X0000007   3.600000000000e+01
 LO BND       X0000008   1.000000000000e+00
 UP BND       X0000008   4.000000000000e+00
 LO BND       X0000009   1.000000000000e+00
 UP BND       X0000009   4.000000000000e+00
 LO BND       X0000010   4.500000000000e+00
 UP BND       X0000010   1.800000000000e+01
 LO BND       X0000011   1.500000000000e+01
 UP BND       X0000011   6.000000000000e+01
 LO BND       X0000012   5.000000000000e-01
 UP BND       X0000012   2.000000000000e+00
 LO BND       X0000013   5.000000000000e-01
 UP BND       X0000013   2.000000000000e+00
 LO BND       X0000014   6.000000000000e+00
 UP BND       X0000014   2.400000000000e+01
 LO BND       X0000015   8.000000000000e+00
 UP BND       X0000015   3.200000000000e+01
 LO BND       X0000016   1.100000000000e+01
 UP BND       X0000016   4.400000000000e+01
 LO BND       X0000017   5.000000000000e-01
 UP BND       X0000017   2.000000000000e+00
 LO BND       X0000018   1.500000000000e+00
 UP BND       X0000018   6.000000000000e+00
 LO BND       X0000019   1.000000000000e+00
 UP BND       X0000019   4.000000000000e+00
 LO BND       X0000020   1.000000000000e+01
 UP BND       X0000020   4.000000000000e+01
 LO BND       X0000021   6.000000000000e+00
 UP BND       X0000021   2.400000000000e+01
 LO BND       X0000022   1.500000000000e+00
 UP BND       X0000022   6.000000000000e+00
 LO BND       X0000023   1.500000000000e+00
 UP BND       X0000023   6.000000000000e+00
 LO BND       X0000024   3.000000000000e+00
 UP BND       X0000024   1.200000000000e+01
 LO BND       X0000025   5.000000000000e-01
 UP BND       X0000025   2.000000000000e+00
 LO BND       X0000026   1.500000000000e+01
 UP BND       X0000026   6.000000000000e+01
 LO BND       X0000027   5.000000000000e-01
 UP BND       X0000027   2.000000000000e+00
 LO BND       X0000028   4.000000000000e+00
 UP BND       X0000028   1.600000000000e+01
 LO BND       X0000029   1.000000000000e+00
 UP BND       X0000029   4.000000000000e+00
 LO BND       X0000030   5.000000000000e-01
 UP BND       X0000030   2.000000000000e+00
 LO BND       X0000031   5.000000000000e-01
 UP BND       X0000031   2.000000000000e+00
 LO BND       X0000032   5.000000000000e-01
 UP BND       X0000032   2.000000000000e+00
 LO BND       X0000033   2.000000000000e+00
 UP BND       X0000033   8.000000000000e+00
 LO BND       X0000034   5.000000000000e-01
 UP BND       X0000034   2.000000000000e+00
 LO BND       X0000035   1.000000000000e+00
 UP BND       X0000035   4.000000000000e+00
 LO BND       X0000036   1.100000000000e+01
 UP BND       X0000036   4.400000000000e+01
 LO BND       X0000037   2.000000000000e+00
 UP BND       X0000037   8.000000000000e+00
 LO BND       X0000038   1.000000000000e+00
 UP BND       X0000038   4.000000000000e+00
 LO BND       X0000039   1.000000000000e+01
 UP BND       X0000039   4.000000000000e+01
 LO BND       X0000040   5.000000000000e-01
 UP BND       X0000040   2.000000000000e+00
 LO BND       X0000041   5.000000000000e-01
 UP BND       X0000041   2.000000000000e+00
 LO BND       X0000042   5.000000000000e-01
 UP BND       X0000042   2.000000000000e+00
 LO BND       X0000043   1.050000000000e+01
 UP BND       X0000043   4.200000000000e+01
 LO BND       X0000044   7.000000000000e+00
 UP BND       X0000044   2.800000000000e+01
 LO BND       X0000045   5.000000000000e-01
 UP BND       X0000045   2.000000000000e+00
 LO BND       X0000046   5.000000000000e-01
 UP BND       X0000046   2.000000000000e+00
 LO BND       X0000047   2.000000000000e+00
 UP BND       X0000047   8.000000000000e+00
ENDATA
