*SENSE:Minimize
NAME          MODEL
ROWS
 N  OBJ
 E  C0000000
 G  C0000001
 G  C0000002
 G  C0000003
 G  C0000004
 G  C0000005
 G  C0000006
 G  C0000007
 G  C0000008
 G  C0000009
 G  C0000010
 G  C0000011
 G  C0000012
 G  C0000013
 G  C0000014
 G  C0000015
 G  C0000016
 G  C0000017
 G  C0000018
 G  C0000019
 G  C0000020
 G  C0000021
 G  C0000022
 G  C0000023
 G  C0000024
 L  C0000025
 L  C0000026
 L  C0000027
 L  C0000028
 L  C0000029
 L  C0000030
 L  C0000031
 L  C0000032
 G  C0000033
 L  C0000034
 G  C0000035
 L  C0000036
 G  C0000037
 L  C0000038
COLUMNS
    X0000000  C0000001   1.000000000000e+00
    X0000000  C0000002   1.000000000000e+00
    X0000000  C0000032   1.000000000000e+00
    X0000001  C0000003   1.000000000000e+00
    X0000001  C0000004   1.000000000000e+00
    X0000001  C0000032   1.000000000000e+00
    X0000002  C0000005   1.000000000000e+00
    X0000002  C0000006   1.000000000000e+00
    X0000002  C0000032   1.000000000000e+00
    X0000003  C0000007   1.000000000000e+00
    X0000003  C0000008   1.000000000000e+00
    X0000003  C0000032   1.000000000000e+00
    X0000004  C0000009   1.000000000000e+00
    X0000004  C0000010   1.000000000000e+00
    X0000004  C0000032   1.000000000000e+00
    X0000005  C0000011   1.000000000000e+00
    X0000005  C0000012   1.000000000000e+00
    X0000005  C0000032   1.000000000000e+00
    X0000006  C0000013   1.000000000000e+00
    X0000006  C0000014   1.000000000000e+00
    X0000006  C0000032   1.000000000000e+00
    X0000007  C0000015   1.000000000000e+00
    X0000007  C0000016   1.000000000000e+00
    X0000007  C0000032   1.000000000000e+00
    X0000008  C0000017   1.000000000000e+00
    X0000008  C0000018   1.000000000000e+00
    X0000008  C0000032   1.000000000000e+00
    X0000009  C0000019   1.000000000000e+00
    X0000009  C0000020   1.000000000000e+00
    X0000009  C0000032   1.000000000000e+00
    X0000010  C0000021   1.000000000000e+00
    X0000010  C0000022   1.000000000000e+00
    X0000010  C0000032   1.000000000000e+00
    X0000011  C0000023   1.000000000000e+00
    X0000011  C0000024   1.000000000000e+00
    X0000011  C0000032   1.000000000000e+00
    X0000012  C0000000   1.000000000000e+00
    X0000012  C0000001  -2.500000000000e-01
    X0000012  C0000002   2.500000000000e-01
    X0000012  C0000025   2.877106452939e-03
    X0000012  C0000026  -2.877106452939e-03
    X0000012  C0000027   1.571733711805e-02
    X0000012  C0000028  -1.571733711805e-02
    X0000012  C0000029   1.279316644448e-03
    X0000012  C0000030  -1.279316644448e-03
    X0000013  C0000000   1.000000000000e+00
    X0000013  C0000003  -1.851851851852e-02
    X0000013  C0000004   1.851851851852e-02
    X0000013  C0000025   2.740101383751e-03
    X0000013  C0000026  -2.740101383751e-03
    X0000013  C0000027   3.107748041628e-04
    X0000013  C0000028  -3.107748041628e-04
    X0000013  C0000029   1.816422258431e-03
    X0000013  C0000030  -1.816422258431e-03
    X0000013  C0000037   1.000000000000e+00
    X0000013  C0000038   1.000000000000e+00
    X0000014  C0000000   1.000000000000e+00
    X0000014  C0000005  -2.173913043478e-02
    X0000014  C0000006   2.173913043478e-02
    X0000014  C0000025   2.740101383751e-03
    X0000014  C0000026  -2.740101383751e-03
    X0000014  C0000027   1.631946962179e-03
    X0000014  C0000028  -1.631946962179e-03
    X0000014  C0000029   4.059497358416e-03
    X0000014  C0000030  -4.059497358416e-03
    X0000015  C0000000   1.000000000000e+00
    X0000015  C0000007  -1.428571428571e-01
    X0000015  C0000008   1.428571428571e-01
    X0000015  C0000025   2.740101383751e-03
    X0000015  C0000026  -2.740101383751e-03
    X0000015  C0000027   1.097400140713e-02
    X0000015  C0000028  -1.097400140713e-02
    X0000015  C0000029   2.466449414901e-03
    X0000015  C0000030  -2.466449414901e-03
    X0000016  C0000000   1.000000000000e+00
    X0000016  C0000009  -9.090909090909e-02
    X0000016  C0000010   9.090909090909e-02
    X0000016  C0000025   2.603096314564e-03
    X0000016  C0000026  -2.603096314564e-03
    X0000016  C0000027   1.083919411330e-02
    X0000016  C0000028  -1.083919411330e-02
    X0000016  C0000029   7.060188614032e-04
    X0000016  C0000030  -7.060188614032e-04
    X0000016  C0000033   1.000000000000e+00
    X0000016  C0000034   1.000000000000e+00
    X0000017  C0000000   1.000000000000e+00
    X0000017  C0000011  -1.587301587302e-02
    X0000017  C0000012   1.587301587302e-02
    X0000017  C0000025   2.740101383751e-03
    X0000017  C0000026  -2.740101383751e-03
    X0000017  C0000027   1.161891221942e-03
    X0000017  C0000028  -1.161891221942e-03
    X0000017  C0000029   1.021033920901e-03
    X0000017  C0000030  -1.021033920901e-03
    X0000018  C0000000   1.000000000000e+00
    X0000018  C0000013  -2.000000000000e-02
    X0000018  C0000014   2.000000000000e-02
    X0000018  C0000025   2.740101383751e-03
    X0000018  C0000026  -2.740101383751e-03
    X0000018  C0000027   4.494250666123e-04
    X0000018  C0000028  -4.494250666123e-04
    X0000018  C0000029   4.605836172419e-03
    X0000018  C0000030  -4.605836172419e-03
    X0000019  C0000000   1.000000000000e+00
    X0000019  C0000015  -9.090909090909e-02
    X0000019  C0000016   9.090909090909e-02
    X0000019  C0000025   2.740101383751e-03
    X0000019  C0000026  -2.740101383751e-03
    X0000019  C0000027   1.047330304872e-02
    X0000019  C0000028  -1.047330304872e-02
    X0000019  C0000029   4.213844862490e-03
    X0000019  C0000030  -4.213844862490e-03
    X0000020  C0000000   1.000000000000e+00
    X0000020  C0000017  -1.388888888889e-02
    X0000020  C0000018   1.388888888889e-02
    X0000020  C0000025   2.740101383751e-03
    X0000020  C0000026  -2.740101383751e-03
    X0000020  C0000027   3.017741671402e-04
    X0000020  C0000028  -3.017741671402e-04
    X0000020  C0000029   2.946378314324e-03
    X0000020  C0000030  -2.946378314324e-03
    X0000020  OBJ        1.000000000000e+00
    X0000021  C0000000   1.000000000000e+00
    X0000021  C0000019  -1.250000000000e-01
    X0000021  C0000020   1.250000000000e-01
    X0000021  C0000025   2.877106452939e-03
    X0000021  C0000026  -2.877106452939e-03
    X0000021  C0000027   1.072744463117e-02
    X0000021  C0000028  -1.072744463117e-02
    X0000021  C0000029   1.075099985187e-03
    X0000021  C0000030  -1.075099985187e-03
    X0000022  C0000000   1.000000000000e+00
    X0000022  C0000021  -6.250000000000e-02
    X0000022  C0000022   6.250000000000e-02
    X0000022  C0000025   2.740101383751e-03
    X0000022  C0000026  -2.740101383751e-03
    X0000022  C0000027   5.350929275320e-03
    X0000022  C0000028  -5.350929275320e-03
    X0000022  C0000029   3.874142102405e-03
    X0000022  C0000030  -3.874142102405e-03
    X0000023  C0000000   1.000000000000e+00
    X0000023  C0000023  -4.347826086957e-02
    X0000023  C0000024   4.347826086957e-02
    X0000023  C0000025   2.603096314564e-03
    X0000023  C0000026  -2.603096314564e-03
    X0000023  C0000027   3.600558201305e-03
    X0000023  C0000028  -3.600558201305e-03
    X0000023  C0000029   2.224658075347e-03
    X0000023  C0000030  -2.224658075347e-03
    X0000023  C0000035   1.000000000000e+00
    X0000023  C0000036   1.000000000000e+00
    X0000024  C0000025  -1.000000000000e+00
    X0000024  C0000026  -1.000000000000e+00
    X0000024  C0000027  -1.000000000000e+00
    X0000024  C0000028  -1.000000000000e+00
    X0000024  C0000029  -1.000000000000e+00
    X0000024  C0000030  -1.000000000000e+00
    X0000024  C0000031   1.000000000000e+00
RHS
    RHS       C0000000   3.650000000000e+02
    RHS       C0000001  -1.000000000000e+00
    RHS       C0000002   1.000000000000e+00
    RHS       C0000003  -1.000000000000e+00
    RHS       C0000004   1.000000000000e+00
    RHS       C0000005  -1.000000000000e+00
    RHS       C0000006   1.000000000000e+00
    RHS       C0000007  -1.000000000000e+00
    RHS       C0000008   1.000000000000e+00
    RHS       C0000009  -1.000000000000e+00
    RHS       C0000010   1.000000000000e+00
    RHS       C0000011  -1.000000000000e+00
    RHS       C0000012   1.000000000000e+00
    RHS       C0000013  -1.000000000000e+00
    RHS       C0000014   1.000000000000e+00
    RHS       C0000015  -1.000000000000e+00
    RHS       C0000016   1.000000000000e+00
    RHS       C0000017  -1.000000000000e+00
    RHS       C0000018   1.000000000000e+00
    RHS       C0000019  -1.000000000000e+00
    RHS       C0000020   1.000000000000e+00
    RHS       C0000021  -1.000000000000e+00
    RHS       C0000022   1.000000000000e+00
    RHS       C0000023  -1.000000000000e+00
    RHS       C0000024   1.000000000000e+00
    RHS       C0000025   1.000000000000e+00
    RHS       C0000026  -1.000000000000e+00
    RHS       C0000027   1.000000000000e+00
    RHS       C0000028  -1.000000000000e+00
    RHS       C0000029   1.000000000000e+00
    RHS       C0000030  -1.000000000000e+00
    RHS       C0000031   1.000000000000e-06
    RHS       C0000032   2.844550912163e+00
    RHS       C0000033   1.099997928029e+01
    RHS       C0000034   1.099998128029e+01
    RHS       C0000035   1.150000000000e+01
    RHS       C0000036   1.150000100000e+01
    RHS       C0000037   4.726102662244e+01
    RHS       C0000038   4.726102862244e+01
BOUNDS
 LO BND       X0000012   2.000000000000e+00
 UP BND       X0000012   8.000000000000e+00
 LO BND       X0000013   2.700000000000e+01
 UP BND       X0000013   1.080000000000e+02
 LO BND       X0000014   2.300000000000e+01
 UP BND       X0000014   9.200000000000e+01
 LO BND       X0000015   3.500000000000e+00
 UP BND       X0000015   1.400000000000e+01
 LO BND       X0000016   5.500000000000e+00
 UP BND       X0000016   2.200000000000e+01
 LO BND       X0000017   3.150000000000e+01
 UP BND       X0000017   1.260000000000e+02
 LO BND       X0000018   2.500000000000e+01
 UP BND       X0000018   1.000000000000e+02
 LO BND       X0000019   5.500000000000e+00
 UP BND       X0000019   2.200000000000e+01
 LO BND       X0000020   3.600000000000e+01
 UP BND       X0000020   1.440000000000e+02
 LO BND       X0000021   4.000000000000e+00
 UP BND       X0000021   1.600000000000e+01
 LO BND       X0000022   8.000000000000e+00
 UP BND       X0000022   3.200000000000e+01
 LO BND       X0000023   1.150000000000e+01
 UP BND       X0000023   4.600000000000e+01
ENDATA
