\* independent_energy_feasibility *\
Minimize
OBJ: t
Subject To
_C1: w_000 + w_001 + w_002 + w_003 + w_004 + w_005 + w_006 + w_007 + w_008
 + w_009 + w_010 + w_011 = 365
_C2: - t + 0.00287710645294 w_000 + 0.00274010138375 w_001
 + 0.00274010138375 w_002 + 0.00274010138375 w_003 + 0.00260309631456 w_004
 + 0.00274010138375 w_005 + 0.00274010138375 w_006 + 0.00274010138375 w_007
 + 0.00274010138375 w_008 + 0.00287710645294 w_009 + 0.00274010138375 w_010
 + 0.00260309631456 w_011 <= 1
_C3: - t - 0.00287710645294 w_000 - 0.00274010138375 w_001
 - 0.00274010138375 w_002 - 0.00274010138375 w_003 - 0.00260309631456 w_004
 - 0.00274010138375 w_005 - 0.00274010138375 w_006 - 0.00274010138375 w_007
 - 0.00274010138375 w_008 - 0.00287710645294 w_009 - 0.00274010138375 w_010
 - 0.00260309631456 w_011 <= -1
_C4: - t + 0.0157173371181 w_000 + 0.000310774804163 w_001
 + 0.00163194696218 w_002 + 0.0109740014071 w_003 + 0.0108391941133 w_004
 + 0.00116189122194 w_005 + 0.000449425066612 w_006 + 0.0104733030487 w_007
 + 0.00030177416714 w_008 + 0.0107274446312 w_009 + 0.00535092927532 w_010
 + 0.0036005582013 w_011 <= 1
_C5: - t - 0.0157173371181 w_000 - 0.000310774804163 w_001
 - 0.00163194696218 w_002 - 0.0109740014071 w_003 - 0.0108391941133 w_004
 - 0.00116189122194 w_005 - 0.000449425066612 w_006 - 0.0104733030487 w_007
 - 0.00030177416714 w_008 - 0.0107274446312 w_009 - 0.00535092927532 w_010
 - 0.0036005582013 w_011 <= -1
_C6: - t + 0.00127931664445 w_000 + 0.00181642225843 w_001
 + 0.00405949735842 w_002 + 0.0024664494149 w_003 + 0.000706018861403 w_004
 + 0.0010210339209 w_005 + 0.00460583617242 w_006 + 0.00421384486249 w_007
 + 0.00294637831432 w_008 + 0.00107509998519 w_009 + 0.0038741421024 w_010
 + 0.00222465807535 w_011 <= 1
_C7: - t - 0.00127931664445 w_000 - 0.00181642225843 w_001
 - 0.00405949735842 w_002 - 0.0024664494149 w_003 - 0.000706018861403 w_004
 - 0.0010210339209 w_005 - 0.00460583617242 w_006 - 0.00421384486249 w_007
 - 0.00294637831432 w_008 - 0.00107509998519 w_009 - 0.0038741421024 w_010
 - 0.00222465807535 w_011 <= -1
Bounds
 2 <= w_000 <= 8
 27 <= w_001 <= 108
 23 <= w_002 <= 92
 3.5 <= w_003 <= 14
 5.5 <= w_004 <= 22
 31.5 <= w_005 <= 126
 25 <= w_006 <= 100
 5.5 <= w_007 <= 22
 36 <= w_008 <= 144
 4 <= w_009 <= 16
 8 <= w_010 <= 32
 11.5 <= w_011 <= 46
End
