*SENSE:Minimize
NAME          MODEL
ROWS
 N  OBJ
 E  C0000000
 G  C0000001
 G  C0000002
 G  C0000003
 G  C0000004
 G  C0000005
 G  C0000006
 G  C0000007
 G  C0000008
 G  C0000009
 G  C0000010
 G  C0000011
 G  C0000012
 G  C0000013
 G  C0000014
 G  C0000015
 G  C0000016
 G  C0000017
 G  C0000018
 G  C0000019
 G  C0000020
 G  C0000021
 G  C0000022
 G  C0000023
 G  C0000024
 G  C0000025
 G  C0000026
 G  C0000027
 G  C0000028
 G  C0000029
 G  C0000030
 G  C0000031
 G  C0000032
 G  C0000033
 G  C0000034
 G  C0000035
 G  C0000036
 G  C0000037
 G  C0000038
 G  C0000039
 G  C0000040
 G  C0000041
 G  C0000042
 G  C0000043
 G  C0000044
 G  C0000045
 G  C0000046
 G  C0000047
 G  C0000048
 G  C0000049
 G  C0000050
 G  C0000051
 G  C0000052
 G  C0000053
 G  C0000054
 G  C0000055
 G  C0000056
 G  C0000057
 G  C0000058
 G  C0000059
 G  C0000060
 G  C0000061
 G  C0000062
 G  C0000063
 G  C0000064
 G  C0000065
 G  C0000066
 G  C0000067
 G  C0000068
 G  C0000069
 G  C0000070
 G  C0000071
 G  C0000072
 G  C0000073
 G  C0000074
 G  C0000075
 G  C0000076
 G  C0000077
 G  C0000078
 G  C0000079
 G  C0000080
 G  C0000081
 G  C0000082
 G  C0000083
 G  C0000084
 G  C0000085
 G  C0000086
 G  C0000087
 G  C0000088
 G  C0000089
 G  C0000090
 G  C0000091
 G  C0000092
 G  C0000093
 G  C0000094
 G  C0000095
 G  C0000096
 L  C0000097
 L  C0000098
 L  C0000099
 L  C0000100
 L  C0000101
 L  C0000102
 L  C0000103
 L  C0000104
 G  C0000105
 L  C0000106
 G  C0000107
 L  C0000108
 G  C0000109
 L  C0000110
 G  C0000111
 L  C0000112
 G  C0000113
 L  C0000114
 G  C0000115
 L  C0000116
 G  C0000117
 L  C0000118
COLUMNS
    X0000000  C0000001   1.000000000000e+00
    X0000000  C0000002   1.000000000000e+00
    X0000000  C0000104   1.000000000000e+00
    X0000001  C0000003   1.000000000000e+00
    X0000001  C0000004   1.000000000000e+00
    X0000001  C0000104   1.000000000000e+00
    X0000002  C0000005   1.000000000000e+00
    X0000002  C0000006   1.000000000000e+00
    X0000002  C0000104   1.000000000000e+00
    X0000003  C0000007   1.000000000000e+00
    X0000003  C0000008   1.000000000000e+00
    X0000003  C0000104   1.000000000000e+00
    X0000004  C0000009   1.000000000000e+00
    X0000004  C0000010   1.000000000000e+00
    X0000004  C0000104   1.000000000000e+00
    X0000005  C0000011   1.000000000000e+00
    X0000005  C0000012   1.000000000000e+00
    X0000005  C0000104   1.000000000000e+00
    X0000006  C0000013   1.000000000000e+00
    X0000006  C0000014   1.000000000000e+00
    X0000006  C0000104   1.000000000000e+00
    X0000007  C0000015   1.000000000000e+00
    X0000007  C0000016   1.000000000000e+00
    X0000007  C0000104   1.000000000000e+00
    X0000008  C0000017   1.000000000000e+00
    X0000008  C0000018   1.000000000000e+00
    X0000008  C0000104   1.000000000000e+00
    X0000009  C0000019   1.000000000000e+00
    X0000009  C0000020   1.000000000000e+00
    X0000009  C0000104   1.000000000000e+00
    X0000010  C0000021   1.000000000000e+00
    X0000010  C0000022   1.000000000000e+00
    X0000010  C0000104   1.000000000000e+00
    X0000011  C0000023   1.000000000000e+00
    X0000011  C0000024   1.000000000000e+00
    X0000011  C0000104   1.000000000000e+00
    X0000012  C0000025   1.000000000000e+00
    X0000012  C0000026   1.000000000000e+00
    X0000012  C0000104   1.000000000000e+00
    X0000013  C0000027   1.000000000000e+00
    X0000013  C0000028   1.000000000000e+00
    X0000013  C0000104   1.000000000000e+00
    X0000014  C0000029   1.000000000000e+00
    X0000014  C0000030   1.000000000000e+00
    X0000014  C0000104   1.000000000000e+00
    X0000015  C0000031   1.000000000000e+00
    X0000015  C0000032   1.000000000000e+00
    X0000015  C0000104   1.000000000000e+00
    X0000016  C0000033   1.000000000000e+00
    X0000016  C0000034   1.000000000000e+00
    X0000016  C0000104   1.000000000000e+00
    X0000017  C0000035   1.000000000000e+00
    X0000017  C0000036   1.000000000000e+00
    X0000017  C0000104   1.000000000000e+00
    X0000018  C0000037   1.000000000000e+00
    X0000018  C0000038   1.000000000000e+00
    X0000018  C0000104   1.000000000000e+00
    X0000019  C0000039   1.000000000000e+00
    X0000019  C0000040   1.000000000000e+00
    X0000019  C0000104   1.000000000000e+00
    X0000020  C0000041   1.000000000000e+00
    X0000020  C0000042   1.000000000000e+00
    X0000020  C0000104   1.000000000000e+00
    X0000021  C0000043   1.000000000000e+00
    X0000021  C0000044   1.000000000000e+00
    X0000021  C0000104   1.000000000000e+00
    X0000022  C0000045   1.000000000000e+00
    X0000022  C0000046   1.000000000000e+00
    X0000022  C0000104   1.000000000000e+00
    X0000023  C0000047   1.000000000000e+00
    X0000023  C0000048   1.000000000000e+00
    X0000023  C0000104   1.000000000000e+00
    X0000024  C0000049   1.000000000000e+00
    X0000024  C0000050   1.000000000000e+00
    X0000024  C0000104   1.000000000000e+00
    X0000025  C0000051   1.000000000000e+00
    X0000025  C0000052   1.000000000000e+00
    X0000025  C0000104   1.000000000000e+00
    X0000026  C0000053   1.000000000000e+00
    X0000026  C0000054   1.000000000000e+00
    X0000026  C0000104   1.000000000000e+00
    X0000027  C0000055   1.000000000000e+00
    X0000027  C0000056   1.000000000000e+00
    X0000027  C0000104   1.000000000000e+00
    X0000028  C0000057   1.000000000000e+00
    X0000028  C0000058   1.000000000000e+00
    X0000028  C0000104   1.000000000000e+00
    X0000029  C0000059   1.000000000000e+00
    X0000029  C0000060   1.000000000000e+00
    X0000029  C0000104   1.000000000000e+00
    X0000030  C0000061   1.000000000000e+00
    X0000030  C0000062   1.000000000000e+00
    X0000030  C0000104   1.000000000000e+00
    X0000031  C0000063   1.000000000000e+00
    X0000031  C0000064   1.000000000000e+00
    X0000031  C0000104   1.000000000000e+00
    X0000032  C0000065   1.000000000000e+00
    X0000032  C0000066   1.000000000000e+00
    X0000032  C0000104   1.000000000000e+00
    X0000033  C0000067   1.000000000000e+00
    X0000033  C0000068   1.000000000000e+00
    X0000033  C0000104   1.000000000000e+00
    X0000034  C0000069   1.000000000000e+00
    X0000034  C0000070   1.000000000000e+00
    X0000034  C0000104   1.000000000000e+00
    X0000035  C0000071   1.000000000000e+00
    X0000035  C0000072   1.000000000000e+00
    X0000035  C0000104   1.000000000000e+00
    X0000036  C0000073   1.000000000000e+00
    X0000036  C0000074   1.000000000000e+00
    X0000036  C0000104   1.000000000000e+00
    X0000037  C0000075   1.000000000000e+00
    X0000037  C0000076   1.000000000000e+00
    X0000037  C0000104   1.000000000000e+00
    X0000038  C0000077   1.000000000000e+00
    X0000038  C0000078   1.000000000000e+00
    X0000038  C0000104   1.000000000000e+00
    X0000039  C0000079   1.000000000000e+00
    X0000039  C0000080   1.000000000000e+00
    X0000039  C0000104   1.000000000000e+00
    X0000040  C0000081   1.000000000000e+00
    X0000040  C0000082   1.000000000000e+00
    X0000040  C0000104   1.000000000000e+00
    X0000041  C0000083   1.000000000000e+00
    X0000041  C0000084   1.000000000000e+00
    X0000041  C0000104   1.000000000000e+00
    X0000042  C0000085   1.000000000000e+00
    X0000042  C0000086   1.000000000000e+00
    X0000042  C0000104   1.000000000000e+00
    X0000043  C0000087   1.000000000000e+00
    X0000043  C0000088   1.000000000000e+00
    X0000043  C0000104   1.000000000000e+00
    X0000044  C0000089   1.000000000000e+00
    X0000044  C0000090   1.000000000000e+00
    X0000044  C0000104   1.000000000000e+00
    X0000045  C0000091   1.000000000000e+00
    X0000045  C0000092   1.000000000000e+00
    X0000045  C0000104   1.000000000000e+00
    X0000046  C0000093   1.000000000000e+00
    X0000046  C0000094   1.000000000000e+00
    X0000046  C0000104   1.000000000000e+00
    X0000047  C0000095   1.000000000000e+00
    X0000047  C0000096   1.000000000000e+00
    X0000047  C0000104   1.000000000000e+00
    X0000048  C0000000   1.000000000000e+00
    X0000048  C0000001  -1.666666666667e-01
    X0000048  C0000002   1.666666666667e-01
    X0000048  C0000097   2.877106452939e-03
    X0000048  C0000098  -2.877106452939e-03
    X0000048  C0000099   3.999316760632e-03
    X0000048  C0000100  -3.999316760632e-03
    X0000048  C0000101   2.935170098257e-03
    X0000048  C0000102  -2.935170098257e-03
    X0000048  C0000115   1.000000000000e+00
    X0000048  C0000116   1.000000000000e+00
    X0000049  C0000000   1.000000000000e+00
    X0000049  C0000003  -5.263157894737e-02
    X0000049  C0000004   5.263157894737e-02
    X0000049  C0000097   2.603096314564e-03
    X0000049  C0000098  -2.603096314564e-03
    X0000049  C0000099   1.516961295946e-05
    X0000049  C0000100  -1.516961295946e-05
    X0000049  C0000101   1.722806497803e-03
    X0000049  C0000102  -1.722806497803e-03
    X0000050  C0000000   1.000000000000e+00
    X0000050  C0000005  -1.428571428571e-01
    X0000050  C0000006   1.428571428571e-01
    X0000050  C0000097   2.740101383751e-03
    X0000050  C0000098  -2.740101383751e-03
    X0000050  C0000099   1.332397671606e-03
    X0000050  C0000100  -1.332397671606e-03
    X0000050  C0000101   4.574433417272e-03
    X0000050  C0000102  -4.574433417272e-03
    X0000051  C0000000   1.000000000000e+00
    X0000051  C0000007  -2.500000000000e-01
    X0000051  C0000008   2.500000000000e-01
    X0000051  C0000097   2.877106452939e-03
    X0000051  C0000098  -2.877106452939e-03
    X0000051  C0000099   1.220547058718e-02
    X0000051  C0000100  -1.220547058718e-02
    X0000051  C0000101   1.440774206290e-03
    X0000051  C0000102  -1.440774206290e-03
    X0000052  C0000000   1.000000000000e+00
    X0000052  C0000009  -2.500000000000e-01
    X0000052  C0000010   2.500000000000e-01
    X0000052  C0000097   2.877106452939e-03
    X0000052  C0000098  -2.877106452939e-03
    X0000052  C0000099   1.125726864646e-02
    X0000052  C0000100  -1.125726864646e-02
    X0000052  C0000101   4.842739347257e-04
    X0000052  C0000102  -4.842739347257e-04
    X0000053  C0000000   1.000000000000e+00
    X0000053  C0000011  -3.333333333333e-01
    X0000053  C0000012   3.333333333333e-01
    X0000053  C0000097   2.877106452939e-03
    X0000053  C0000098  -2.877106452939e-03
    X0000053  C0000099   1.283359369446e-02
    X0000053  C0000100  -1.283359369446e-02
    X0000053  C0000101   2.804177158939e-03
    X0000053  C0000102  -2.804177158939e-03
    X0000054  C0000000   1.000000000000e+00
    X0000054  C0000013  -1.000000000000e+00
    X0000054  C0000014   1.000000000000e+00
    X0000054  C0000097   2.877106452939e-03
    X0000054  C0000098  -2.877106452939e-03
    X0000054  C0000099   1.326997289392e-02
    X0000054  C0000100  -1.326997289392e-02
    X0000054  C0000101   2.084333185207e-03
    X0000054  C0000102  -2.084333185207e-03
    X0000055  C0000000   1.000000000000e+00
    X0000055  C0000015  -3.333333333333e-01
    X0000055  C0000016   3.333333333333e-01
    X0000055  C0000097   2.877106452939e-03
    X0000055  C0000098  -2.877106452939e-03
    X0000055  C0000099   2.478815888329e-03
    X0000055  C0000100  -2.478815888329e-03
    X0000055  C0000101   1.129412926480e-03
    X0000055  C0000102  -1.129412926480e-03
    X0000056  C0000000   1.000000000000e+00
    X0000056  C0000017  -5.000000000000e-01
    X0000056  C0000018   5.000000000000e-01
    X0000056  C0000097   2.877106452939e-03
    X0000056  C0000098  -2.877106452939e-03
    X0000056  C0000099   6.849484774209e-03
    X0000056  C0000100  -6.849484774209e-03
    X0000056  C0000101   2.343455290574e-03
    X0000056  C0000102  -2.343455290574e-03
    X0000057  C0000000   1.000000000000e+00
    X0000057  C0000019  -3.333333333333e-01
    X0000057  C0000020   3.333333333333e-01
    X0000057  C0000097   2.740101383751e-03
    X0000057  C0000098  -2.740101383751e-03
    X0000057  C0000099   8.450687987457e-03
    X0000057  C0000100  -8.450687987457e-03
    X0000057  C0000101   1.304251222041e-03
    X0000057  C0000102  -1.304251222041e-03
    X0000057  C0000117   1.000000000000e+00
    X0000057  C0000118   1.000000000000e+00
    X0000058  C0000000   1.000000000000e+00
    X0000058  C0000021  -6.666666666667e-02
    X0000058  C0000022   6.666666666667e-02
    X0000058  C0000097   2.603096314564e-03
    X0000058  C0000098  -2.603096314564e-03
    X0000058  C0000099   1.236424586949e-03
    X0000058  C0000100  -1.236424586949e-03
    X0000058  C0000101   2.932503826594e-03
    X0000058  C0000102  -2.932503826594e-03
    X0000058  C0000111   1.000000000000e+00
    X0000058  C0000112   1.000000000000e+00
    X0000059  C0000000   1.000000000000e+00
    X0000059  C0000023  -2.500000000000e-01
    X0000059  C0000024   2.500000000000e-01
    X0000059  C0000097   2.603096314564e-03
    X0000059  C0000098  -2.603096314564e-03
    X0000059  C0000099   3.925996964662e-03
    X0000059  C0000100  -3.925996964662e-03
    X0000059  C0000101   9.445514244803e-04
    X0000059  C0000102  -9.445514244803e-04
    X0000060  C0000000   1.000000000000e+00
    X0000060  C0000025  -1.000000000000e+00
    X0000060  C0000026   1.000000000000e+00
    X0000060  C0000097   2.740101383751e-03
    X0000060  C0000098  -2.740101383751e-03
    X0000060  C0000099   2.373821940499e-02
    X0000060  C0000100  -2.373821940499e-02
    X0000060  C0000101   4.145064928653e-04
    X0000060  C0000102  -4.145064928653e-04
    X0000060  C0000105   1.000000000000e+00
    X0000060  C0000106   1.000000000000e+00
    X0000061  C0000000   1.000000000000e+00
    X0000061  C0000027  -1.250000000000e-01
    X0000061  C0000028   1.250000000000e-01
    X0000061  C0000097   2.740101383751e-03
    X0000061  C0000098  -2.740101383751e-03
    X0000061  C0000099   2.989930714310e-03
    X0000061  C0000100  -2.989930714310e-03
    X0000061  C0000101   1.906779242581e-03
    X0000061  C0000102  -1.906779242581e-03
    X0000062  C0000000   1.000000000000e+00
    X0000062  C0000029  -2.500000000000e-01
    X0000062  C0000030   2.500000000000e-01
    X0000062  C0000097   2.740101383751e-03
    X0000062  C0000098  -2.740101383751e-03
    X0000062  C0000099   1.032312388042e-02
    X0000062  C0000100  -1.032312388042e-02
    X0000062  C0000101   4.939613884363e-03
    X0000062  C0000102  -4.939613884363e-03
    X0000063  C0000000   1.000000000000e+00
    X0000063  C0000031  -4.166666666667e-02
    X0000063  C0000032   4.166666666667e-02
    X0000063  C0000097   2.877106452939e-03
    X0000063  C0000098  -2.877106452939e-03
    X0000063  C0000099   8.274518215621e-04
    X0000063  C0000100  -8.274518215621e-04
    X0000063  C0000101   5.349133461709e-03
    X0000063  C0000102  -5.349133461709e-03
    X0000064  C0000000   1.000000000000e+00
    X0000064  C0000033  -5.555555555556e-02
    X0000064  C0000034   5.555555555556e-02
    X0000064  C0000097   2.740101383751e-03
    X0000064  C0000098  -2.740101383751e-03
    X0000064  C0000099   3.887466147745e-04
    X0000064  C0000100  -3.887466147745e-04
    X0000064  C0000101   1.578136572360e-03
    X0000064  C0000102  -1.578136572360e-03
    X0000065  C0000000   1.000000000000e+00
    X0000065  C0000035  -2.000000000000e-01
    X0000065  C0000036   2.000000000000e-01
    X0000065  C0000097   2.740101383751e-03
    X0000065  C0000098  -2.740101383751e-03
    X0000065  C0000099   4.407480479995e-03
    X0000065  C0000100  -4.407480479995e-03
    X0000065  C0000101   6.951562731447e-04
    X0000065  C0000102  -6.951562731447e-04
    X0000065  C0000113   1.000000000000e+00
    X0000065  C0000114   1.000000000000e+00
    X0000066  C0000000   1.000000000000e+00
    X0000066  C0000037  -6.250000000000e-02
    X0000066  C0000038   6.250000000000e-02
    X0000066  C0000097   2.740101383751e-03
    X0000066  C0000098  -2.740101383751e-03
    X0000066  C0000099   8.530379020870e-04
    X0000066  C0000100  -8.530379020870e-04
    X0000066  C0000101   3.109169011998e-03
    X0000066  C0000102  -3.109169011998e-03
    X0000067  C0000000   1.000000000000e+00
    X0000067  C0000039  -1.111111111111e-01
    X0000067  C0000040   1.111111111111e-01
    X0000067  C0000097   2.603096314564e-03
    X0000067  C0000098  -2.603096314564e-03
    X0000067  C0000099   3.694609801653e-03
    X0000067  C0000100  -3.694609801653e-03
    X0000067  C0000101   4.561497062164e-03
    X0000067  C0000102  -4.561497062164e-03
    X0000068  C0000000   1.000000000000e+00
    X0000068  C0000041  -5.000000000000e-01
    X0000068  C0000042   5.000000000000e-01
    X0000068  C0000097   2.603096314564e-03
    X0000068  C0000098  -2.603096314564e-03
    X0000068  C0000099   1.083919411330e-02
    X0000068  C0000100  -1.083919411330e-02
    X0000068  C0000101   7.060188614032e-04
    X0000068  C0000102  -7.060188614032e-04
    X0000068  OBJ        1.000000000000e+00
    X0000069  C0000000   1.000000000000e+00
    X0000069  C0000043  -1.000000000000e+00
    X0000069  C0000044   1.000000000000e+00
    X0000069  C0000097   2.877106452939e-03
    X0000069  C0000098  -2.877106452939e-03
    X0000069  C0000099   1.192705762400e-02
    X0000069  C0000100  -1.192705762400e-02
    X0000069  C0000101   1.165851972547e-03
    X0000069  C0000102  -1.165851972547e-03
    X0000070  C0000000   1.000000000000e+00
    X0000070  C0000045  -5.000000000000e-01
    X0000070  C0000046   5.000000000000e-01
    X0000070  C0000097   2.740101383751e-03
    X0000070  C0000098  -2.740101383751e-03
    X0000070  C0000099   9.089632085309e-03
    X0000070  C0000100  -9.089632085309e-03
    X0000070  C0000101   3.916061818002e-03
    X0000070  C0000102  -3.916061818002e-03
    X0000071  C0000000   1.000000000000e+00
    X0000071  C0000047  -1.666666666667e-01
    X0000071  C0000048   1.666666666667e-01
    X0000071  C0000097   2.740101383751e-03
    X0000071  C0000098  -2.740101383751e-03
    X0000071  C0000099   3.857632575591e-03
    X0000071  C0000100  -3.857632575591e-03
    X0000071  C0000101   8.850046906631e-04
    X0000071  C0000102  -8.850046906631e-04
    X0000072  C0000000   1.000000000000e+00
    X0000072  C0000049  -4.347826086957e-02
    X0000072  C0000050   4.347826086957e-02
    X0000072  C0000097   2.740101383751e-03
    X0000072  C0000098  -2.740101383751e-03
    X0000072  C0000099   3.147189035323e-04
    X0000072  C0000100  -3.147189035323e-04
    X0000072  C0000101   2.774354416630e-03
    X0000072  C0000102  -2.774354416630e-03
    X0000073  C0000000   1.000000000000e+00
    X0000073  C0000051  -1.000000000000e+00
    X0000073  C0000052   1.000000000000e+00
    X0000073  C0000097   2.877106452939e-03
    X0000073  C0000098  -2.877106452939e-03
    X0000073  C0000099   1.571733711805e-02
    X0000073  C0000100  -1.571733711805e-02
    X0000073  C0000101   1.279316644448e-03
    X0000073  C0000102  -1.279316644448e-03
    X0000074  C0000000   1.000000000000e+00
    X0000074  C0000053  -1.000000000000e-01
    X0000074  C0000054   1.000000000000e-01
    X0000074  C0000097   2.603096314564e-03
    X0000074  C0000098  -2.603096314564e-03
    X0000074  C0000099   7.317821291644e-04
    X0000074  C0000100  -7.317821291644e-04
    X0000074  C0000101   4.891077865008e-03
    X0000074  C0000102  -4.891077865008e-03
    X0000075  C0000000   1.000000000000e+00
    X0000075  C0000055  -1.000000000000e+00
    X0000075  C0000056   1.000000000000e+00
    X0000075  C0000097   2.603096314564e-03
    X0000075  C0000098  -2.603096314564e-03
    X0000075  C0000099   1.481130670136e-02
    X0000075  C0000100  -1.481130670136e-02
    X0000075  C0000101   4.085616945638e-03
    X0000075  C0000102  -4.085616945638e-03
    X0000076  C0000000   1.000000000000e+00
    X0000076  C0000057  -7.142857142857e-02
    X0000076  C0000058   7.142857142857e-02
    X0000076  C0000097   2.740101383751e-03
    X0000076  C0000098  -2.740101383751e-03
    X0000076  C0000099   2.541516955228e-03
    X0000076  C0000100  -2.541516955228e-03
    X0000076  C0000101   3.710808275317e-03
    X0000076  C0000102  -3.710808275317e-03
    X0000077  C0000000   1.000000000000e+00
    X0000077  C0000059  -2.500000000000e-01
    X0000077  C0000060   2.500000000000e-01
    X0000077  C0000097   2.603096314564e-03
    X0000077  C0000098  -2.603096314564e-03
    X0000077  C0000099   5.583125484353e-03
    X0000077  C0000100  -5.583125484353e-03
    X0000077  C0000101   2.532316200069e-03
    X0000077  C0000102  -2.532316200069e-03
    X0000078  C0000000   1.000000000000e+00
    X0000078  C0000061  -3.333333333333e-01
    X0000078  C0000062   3.333333333333e-01
    X0000078  C0000097   2.877106452939e-03
    X0000078  C0000098  -2.877106452939e-03
    X0000078  C0000099   1.072744463117e-02
    X0000078  C0000100  -1.072744463117e-02
    X0000078  C0000101   1.075099985187e-03
    X0000078  C0000102  -1.075099985187e-03
    X0000079  C0000000   1.000000000000e+00
    X0000079  C0000063  -7.692307692308e-02
    X0000079  C0000064   7.692307692308e-02
    X0000079  C0000097   2.877106452939e-03
    X0000079  C0000098  -2.877106452939e-03
    X0000079  C0000099   2.090979450332e-03
    X0000079  C0000100  -2.090979450332e-03
    X0000079  C0000101   2.079395645090e-03
    X0000079  C0000102  -2.079395645090e-03
    X0000080  C0000000   1.000000000000e+00
    X0000080  C0000065  -1.000000000000e+00
    X0000080  C0000066   1.000000000000e+00
    X0000080  C0000097   2.877106452939e-03
    X0000080  C0000098  -2.877106452939e-03
    X0000080  C0000099   1.914900696174e-02
    X0000080  C0000100  -1.914900696174e-02
    X0000080  C0000101   1.880857156964e-03
    X0000080  C0000102  -1.880857156964e-03
    X0000081  C0000000   1.000000000000e+00
    X0000081  C0000067  -4.347826086957e-02
    X0000081  C0000068   4.347826086957e-02
    X0000081  C0000097   2.603096314564e-03
    X0000081  C0000098  -2.603096314564e-03
    X0000081  C0000099   5.021141889582e-04
    X0000081  C0000100  -5.021141889582e-04
    X0000081  C0000101   3.953389621291e-03
    X0000081  C0000102  -3.953389621291e-03
    X0000082  C0000000   1.000000000000e+00
    X0000082  C0000069  -2.500000000000e-01
    X0000082  C0000070   2.500000000000e-01
    X0000082  C0000097   2.877106452939e-03
    X0000082  C0000098  -2.877106452939e-03
    X0000082  C0000099   5.709943448694e-03
    X0000082  C0000100  -5.709943448694e-03
    X0000082  C0000101   2.212363600454e-03
    X0000082  C0000102  -2.212363600454e-03
    X0000083  C0000000   1.000000000000e+00
    X0000083  C0000071  -2.500000000000e-01
    X0000083  C0000072   2.500000000000e-01
    X0000083  C0000097   2.603096314564e-03
    X0000083  C0000098  -2.603096314564e-03
    X0000083  C0000099   7.836217531845e-03
    X0000083  C0000100  -7.836217531845e-03
    X0000083  C0000101   1.030069619316e-03
    X0000083  C0000102  -1.030069619316e-03
    X0000084  C0000000   1.000000000000e+00
    X0000084  C0000073  -1.666666666667e-01
    X0000084  C0000074   1.666666666667e-01
    X0000084  C0000097   2.603096314564e-03
    X0000084  C0000098  -2.603096314564e-03
    X0000084  C0000099   4.766899176381e-03
    X0000084  C0000100  -4.766899176381e-03
    X0000084  C0000101   5.007603811781e-03
    X0000084  C0000102  -5.007603811781e-03
    X0000085  C0000000   1.000000000000e+00
    X0000085  C0000075  -1.000000000000e+00
    X0000085  C0000076   1.000000000000e+00
    X0000085  C0000097   2.740101383751e-03
    X0000085  C0000098  -2.740101383751e-03
    X0000085  C0000099   1.499627484871e-02
    X0000085  C0000100  -1.499627484871e-02
    X0000085  C0000101   3.140621142547e-03
    X0000085  C0000102  -3.140621142547e-03
    X0000086  C0000000   1.000000000000e+00
    X0000086  C0000077  -5.000000000000e-02
    X0000086  C0000078   5.000000000000e-02
    X0000086  C0000097   2.877106452939e-03
    X0000086  C0000098  -2.877106452939e-03
    X0000086  C0000099   1.433730686175e-03
    X0000086  C0000100  -1.433730686175e-03
    X0000086  C0000101   8.248654520318e-04
    X0000086  C0000102  -8.248654520318e-04
    X0000087  C0000000   1.000000000000e+00
    X0000087  C0000079  -2.500000000000e-01
    X0000087  C0000080   2.500000000000e-01
    X0000087  C0000097   2.877106452939e-03
    X0000087  C0000098  -2.877106452939e-03
    X0000087  C0000099   8.418932930995e-03
    X0000087  C0000100  -8.418932930995e-03
    X0000087  C0000101   3.198686614329e-03
    X0000087  C0000102  -3.198686614329e-03
    X0000087  C0000109   1.000000000000e+00
    X0000087  C0000110   1.000000000000e+00
    X0000088  C0000000   1.000000000000e+00
    X0000088  C0000081  -5.263157894737e-02
    X0000088  C0000082   5.263157894737e-02
    X0000088  C0000097   2.740101383751e-03
    X0000088  C0000098  -2.740101383751e-03
    X0000088  C0000099   1.415223758365e-03
    X0000088  C0000100  -1.415223758365e-03
    X0000088  C0000101   2.171628894485e-03
    X0000088  C0000102  -2.171628894485e-03
    X0000089  C0000000   1.000000000000e+00
    X0000089  C0000083  -1.111111111111e-01
    X0000089  C0000084   1.111111111111e-01
    X0000089  C0000097   2.740101383751e-03
    X0000089  C0000098  -2.740101383751e-03
    X0000089  C0000099   7.996408644697e-04
    X0000089  C0000100  -7.996408644697e-04
    X0000089  C0000101   2.367352984743e-03
    X0000089  C0000102  -2.367352984743e-03
    X0000090  C0000000   1.000000000000e+00
    X0000090  C0000085  -1.250000000000e-01
    X0000090  C0000086   1.250000000000e-01
    X0000090  C0000097   2.603096314564e-03
    X0000090  C0000098  -2.603096314564e-03
    X0000090  C0000099   2.057909694080e-03
    X0000090  C0000100  -2.057909694080e-03
    X0000090  C0000101   6.724435886042e-04
    X0000090  C0000102  -6.724435886042e-04
    X0000090  C0000107   1.000000000000e+00
    X0000090  C0000108   1.000000000000e+00
    X0000091  C0000000   1.000000000000e+00
    X0000091  C0000087  -5.000000000000e-01
    X0000091  C0000088   5.000000000000e-01
    X0000091  C0000097   2.877106452939e-03
    X0000091  C0000098  -2.877106452939e-03
    X0000091  C0000099   8.018657410371e-03
    X0000091  C0000100  -8.018657410371e-03
    X0000091  C0000101   3.119044092233e-04
    X0000091  C0000102  -3.119044092233e-04
    X0000092  C0000000   1.000000000000e+00
    X0000092  C0000089  -5.263157894737e-02
    X0000092  C0000090   5.263157894737e-02
    X0000092  C0000097   2.877106452939e-03
    X0000092  C0000098  -2.877106452939e-03
    X0000092  C0000099   8.625441928750e-04
    X0000092  C0000100  -8.625441928750e-04
    X0000092  C0000101   3.603614279366e-03
    X0000092  C0000102  -3.603614279366e-03
    X0000093  C0000000   1.000000000000e+00
    X0000093  C0000091  -3.333333333333e-01
    X0000093  C0000092   3.333333333333e-01
    X0000093  C0000097   2.740101383751e-03
    X0000093  C0000098  -2.740101383751e-03
    X0000093  C0000099   4.361567118104e-03
    X0000093  C0000100  -4.361567118104e-03
    X0000093  C0000101   2.490643361477e-03
    X0000093  C0000102  -2.490643361477e-03
    X0000094  C0000000   1.000000000000e+00
    X0000094  C0000093  -1.000000000000e+00
    X0000094  C0000094   1.000000000000e+00
    X0000094  C0000097   2.603096314564e-03
    X0000094  C0000098  -2.603096314564e-03
    X0000094  C0000099   7.657721752689e-03
    X0000094  C0000100  -7.657721752689e-03
    X0000094  C0000101   2.123043499728e-03
    X0000094  C0000102  -2.123043499728e-03
    X0000095  C0000000   1.000000000000e+00
    X0000095  C0000095  -2.000000000000e-01
    X0000095  C0000096   2.000000000000e-01
    X0000095  C0000097   2.740101383751e-03
    X0000095  C0000098  -2.740101383751e-03
    X0000095  C0000099   4.060399735482e-03
    X0000095  C0000100  -4.060399735482e-03
    X0000095  C0000101   4.202982274231e-03
    X0000095  C0000102  -4.202982274231e-03
    X0000096  C0000097  -1.000000000000e+00
    X0000096  C0000098  -1.000000000000e+00
    X0000096  C0000099  -1.000000000000e+00
    X0000096  C0000100  -1.000000000000e+00
    X0000096  C0000101  -1.000000000000e+00
    X0000096  C0000102  -1.000000000000e+00
    X0000096  C0000103   1.000000000000e+00
RHS
    RHS       C0000000   3.650000000000e+02
    RHS       C0000001  -1.000000000000e+00
    RHS       C0000002   1.000000000000e+00
    RHS       C0000003  -1.000000000000e+00
    RHS       C0000004   1.000000000000e+00
    RHS       C0000005  -1.000000000000e+00
    RHS       C0000006   1.000000000000e+00
    RHS       C0000007  -1.000000000000e+00
    RHS       C0000008   1.000000000000e+00
    RHS       C0000009  -1.000000000000e+00
    RHS       C0000010   1.000000000000e+00
    RHS       C0000011  -1.000000000000e+00
    RHS       C0000012   1.000000000000e+00
    RHS       C0000013  -1.000000000000e+00
    RHS       C0000014   1.000000000000e+00
    RHS       C0000015  -1.000000000000e+00
    RHS       C0000016   1.000000000000e+00
    RHS       C0000017  -1.000000000000e+00
    RHS       C0000018   1.000000000000e+00
    RHS       C0000019  -1.000000000000e+00
    RHS       C0000020   1.000000000000e+00
    RHS       C0000021  -1.000000000000e+00
    RHS       C0000022   1.000000000000e+00
    RHS       C0000023  -1.000000000000e+00
    RHS       C0000024   1.000000000000e+00
    RHS       C0000025  -1.000000000000e+00
    RHS       C0000026   1.000000000000e+00
    RHS       C0000027  -1.000000000000e+00
    RHS       C0000028   1.000000000000e+00
    RHS       C0000029  -1.000000000000e+00
    RHS       C0000030   1.000000000000e+00
    RHS       C0000031  -1.000000000000e+00
    RHS       C0000032   1.000000000000e+00
    RHS       C0000033  -1.000000000000e+00
    RHS       C0000034   1.000000000000e+00
    RHS       C0000035  -1.000000000000e+00
    RHS       C0000036   1.000000000000e+00
    RHS       C0000037  -1.000000000000e+00
    RHS       C0000038   1.000000000000e+00
    RHS       C0000039  -1.000000000000e+00
    RHS       C0000040   1.000000000000e+00
    RHS       C0000041  -1.000000000000e+00
    RHS       C0000042   1.000000000000e+00
    RHS       C0000043  -1.000000000000e+00
    RHS       C0000044   1.000000000000e+00
    RHS       C0000045  -1.000000000000e+00
    RHS       C0000046   1.000000000000e+00
    RHS       C0000047  -1.000000000000e+00
    RHS       C0000048   1.000000000000e+00
    RHS       C0000049  -1.000000000000e+00
    RHS       C0000050   1.000000000000e+00
    RHS       C0000051  -1.000000000000e+00
    RHS       C0000052   1.000000000000e+00
    RHS       C0000053  -1.000000000000e+00
    RHS       C0000054   1.000000000000e+00
    RHS       C0000055  -1.000000000000e+00
    RHS       C0000056   1.000000000000e+00
    RHS       C0000057  -1.000000000000e+00
    RHS       C0000058   1.000000000000e+00
    RHS       C0000059  -1.000000000000e+00
    RHS       C0000060   1.000000000000e+00
    RHS       C0000061  -1.000000000000e+00
    RHS       C0000062   1.000000000000e+00
    RHS       C0000063  -1.000000000000e+00
    RHS       C0000064   1.000000000000e+00
    RHS       C0000065  -1.000000000000e+00
    RHS       C0000066   1.000000000000e+00
    RHS       C0000067  -1.000000000000e+00
    RHS       C0000068   1.000000000000e+00
    RHS       C0000069  -1.000000000000e+00
    RHS       C0000070   1.000000000000e+00
    RHS       C0000071  -1.000000000000e+00
    RHS       C0000072   1.000000000000e+00
    RHS       C0000073  -1.000000000000e+00
    RHS       C0000074   1.000000000000e+00
    RHS       C0000075  -1.000000000000e+00
    RHS       C0000076   1.000000000000e+00
    RHS       C0000077  -1.000000000000e+00
    RHS       C0000078   1.000000000000e+00
    RHS       C0000079  -1.000000000000e+00
    RHS       C0000080   1.000000000000e+00
    RHS       C0000081  -1.000000000000e+00
    RHS       C0000082   1.000000000000e+00
    RHS       C0000083  -1.000000000000e+00
    RHS       C0000084   1.000000000000e+00
    RHS       C0000085  -1.000000000000e+00
    RHS       C0000086   1.000000000000e+00
    RHS       C0000087  -1.000000000000e+00
    RHS       C0000088   1.000000000000e+00
    RHS       C0000089  -1.000000000000e+00
    RHS       C0000090   1.000000000000e+00
    RHS       C0000091  -1.000000000000e+00
    RHS       C0000092   1.000000000000e+00
    RHS       C0000093  -1.000000000000e+00
    RHS       C0000094   1.000000000000e+00
    RHS       C0000095  -1.000000000000e+00
    RHS       C0000096   1.000000000000e+00
    RHS       C0000097   1.000000000000e+00
    RHS       C0000098  -1.000000000000e+00
    RHS       C0000099   1.000000000000e+00
    RHS       C0000100  -1.000000000000e+00
    RHS       C0000101   1.000000000000e+00
    RHS       C0000102  -1.000000000000e+00
    RHS       C0000103   1.000000000000e-06
    RHS       C0000104   5.447161736345e-01
    RHS       C0000105   9.999983533661e-01
    RHS       C0000106   1.000000353366e+00
    RHS       C0000107   7.999994554740e+00
    RHS       C0000108   7.999996554740e+00
    RHS       C0000109   3.999998427303e+00
    RHS       C0000110   4.000000427303e+00
    RHS       C0000111   1.740174948586e+01
    RHS       C0000112   1.740175148586e+01
    RHS       C0000113   4.999998993608e+00
    RHS       C0000114   5.000000993608e+00
    RHS       C0000115   5.999998990614e+00
    RHS       C0000116   6.000000990614e+00
    RHS       C0000117   2.999998996219e+00
    RHS       C0000118   3.000000996219e+00
BOUNDS
 LO BND       X0000048   3.000000000000e+00
 UP BND       X0000048   1.200000000000e+01
 LO BND       X0000049   9.500000000000e+00
 UP BND       X0000049   3.800000000000e+01
 LO BND       X0000050   3.500000000000e+00
 UP BND       X0000050   1.400000000000e+01
 LO BND       X0000051   2.000000000000e+00
 UP BND       X0000051   8.000000000000e+00
 LO BND       X0000052   2.000000000000e+00
 UP BND       X0000052   8.000000000000e+00
 LO BND       X0000053   1.500000000000e+00
 UP BND       X0000053   6.000000000000e+00
 LO BND       X0000054   5.000000000000e-01
 UP BND       X0000054   2.000000000000e+00
 LO BND       X0000055   1.500000000000e+00
 UP BND       X0000055   6.000000000000e+00
 LO BND       X0000056   1.000000000000e+00
 UP BND       X0000056   4.000000000000e+00
 LO BND       X0000057   1.500000000000e+00
 UP BND       X0000057   6.000000000000e+00
 LO BND       X0000058   7.500000000000e+00
 UP BND       X0000058   3.000000000000e+01
 LO BND       X0000059   2.000000000000e+00
 UP BND       X0000059   8.000000000000e+00
 LO BND       X0000060   5.000000000000e-01
 UP BND       X0000060   2.000000000000e+00
 LO BND       X0000061   4.000000000000e+00
 UP BND       X0000061   1.600000000000e+01
 LO BND       X0000062   2.000000000000e+00
 UP BND       X0000062   8.000000000000e+00
 LO BND       X0000063   1.200000000000e+01
 UP BND       X0000063   4.800000000000e+01
 LO BND       X0000064   9.000000000000e+00
 UP BND       X0000064   3.600000000000e+01
 LO BND       X0000065   2.500000000000e+00
 UP BND       X0000065   1.000000000000e+01
 LO BND       X0000066   8.000000000000e+00
 UP BND       X0000066   3.200000000000e+01
 LO BND       X0000067   4.500000000000e+00
 UP BND       X0000067   1.800000000000e+01
 LO BND       X0000068   1.000000000000e+00
 UP BND       X0000068   4.000000000000e+00
 LO BND       X0000069   5.000000000000e-01
 UP BND       X0000069   2.000000000000e+00
 LO BND       X0000070   1.000000000000e+00
 UP BND       X0000070   4.000000000000e+00
 LO BND       X0000071   3.000000000000e+00
 UP BND       X0000071   1.200000000000e+01
 LO BND       X0000072   1.150000000000e+01
 UP BND       X0000072   4.600000000000e+01
 LO BND       X0000073   5.000000000000e-01
 UP BND       X0000073   2.000000000000e+00
 LO BND       X0000074   5.000000000000e+00
 UP BND       X0000074   2.000000000000e+01
 LO BND       X0000075   5.000000000000e-01
 UP BND       X0000075   2.000000000000e+00
 LO BND       X0000076   7.000000000000e+00
 UP BND       X0000076   2.800000000000e+01
 LO BND       X0000077   2.000000000000e+00
 UP BND       X0000077   8.000000000000e+00
 LO BND       X0000078   1.500000000000e+00
 UP BND       X0000078   6.000000000000e+00
 LO BND       X0000079   6.500000000000e+00
 UP BND       X0000079   2.600000000000e+01
 LO BND       X0000080   5.000000000000e-01
 UP BND       X0000080   2.000000000000e+00
 LO BND       X0000081   1.150000000000e+01
 UP BND       X0000081   4.600000000000e+01
 LO BND       X0000082   2.000000000000e+00
 UP BND       X0000082   8.000000000000e+00
 LO BND       X0000083   2.000000000000e+00
 UP BND       X0000083   8.000000000000e+00
 LO BND       X0000084   3.000000000000e+00
 UP BND       X0000084   1.200000000000e+01
 LO BND       X0000085   5.000000000000e-01
 UP BND       X0000085   2.000000000000e+00
 LO BND       X0000086   1.000000000000e+01
 UP BND       X0000086   4.000000000000e+01
 LO BND       X0000087   2.000000000000e+00
 UP BND       X0000087   8.000000000000e+00
 LO BND       X0000088   9.500000000000e+00
 UP BND       X0000088   3.800000000000e+01
 LO BND       X0000089   4.500000000000e+00
 UP BND       X0000089   1.800000000000e+01
 LO BND       X0000090   4.000000000000e+00
 UP BND       X0000090   1.600000000000e+01
 LO BND       X0000091   1.000000000000e+00
 UP BND       X0000091   4.000000000000e+00
 LO BND       X0000092   9.500000000000e+00
 UP BND       X0000092   3.800000000000e+01
 LO BND       X0000093   1.500000000000e+00
 UP BND       X0000093   6.000000000000e+00
 LO BND       X0000094   5.000000000000e-01
 UP BND       X0000094   2.000000000000e+00
 LO BND       X0000095   2.500000000000e+00
 UP BND       X0000095   1.000000000000e+01
ENDATA
