\* U11R15_linf_secondary *\
Minimize
OBJ: worst_absolute_deviation
Subject To
channel_neg_0: - 0.00287710645294 w_000 - 0.00260309631456 w_001
 - 0.00274010138375 w_002 - 0.00287710645294 w_003 - 0.00287710645294 w_004
 - 0.00287710645294 w_005 - 0.00287710645294 w_006 - 0.00287710645294 w_007
 - 0.00287710645294 w_008 - 0.00274010138375 w_009 - 0.00260309631456 w_010
 - 0.00260309631456 w_011 - 0.00274010138375 w_012 - 0.00274010138375 w_013
 - 0.00274010138375 w_014 - 0.00287710645294 w_015 - 0.00274010138375 w_016
 - 0.00274010138375 w_017 - 0.00274010138375 w_018 - 0.00260309631456 w_019
 - 0.00260309631456 w_020 - 0.00287710645294 w_021 - 0.00274010138375 w_022
 - 0.00274010138375 w_023 - 0.00274010138375 w_024 - 0.00287710645294 w_025
 - 0.00260309631456 w_026 - 0.00260309631456 w_027 - 0.00274010138375 w_028
 - 0.00260309631456 w_029 - 0.00287710645294 w_030 - 0.00287710645294 w_031
 - 0.00287710645294 w_032 - 0.00260309631456 w_033 - 0.00287710645294 w_034
 - 0.00260309631456 w_035 - 0.00260309631456 w_036 - 0.00274010138375 w_037
 - 0.00287710645294 w_038 - 0.00287710645294 w_039 - 0.00274010138375 w_040
 - 0.00274010138375 w_041 - 0.00260309631456 w_042 - 0.00287710645294 w_043
 - 0.00287710645294 w_044 - 0.00274010138375 w_045 - 0.00260309631456 w_046
 - 0.00274010138375 w_047 - worst_relative_error <= -1
channel_neg_1: - 0.00399931676063 w_000 - 1.51696129595e-05 w_001
 - 0.00133239767161 w_002 - 0.0122054705872 w_003 - 0.0112572686465 w_004
 - 0.0128335936945 w_005 - 0.0132699728939 w_006 - 0.00247881588833 w_007
 - 0.00684948477421 w_008 - 0.00845068798746 w_009 - 0.00123642458695 w_010
 - 0.00392599696466 w_011 - 0.023738219405 w_012 - 0.00298993071431 w_013
 - 0.0103231238804 w_014 - 0.000827451821562 w_015 - 0.000388746614774 w_016
 - 0.00440748047999 w_017 - 0.000853037902087 w_018 - 0.00369460980165 w_019
 - 0.0108391941133 w_020 - 0.011927057624 w_021 - 0.00908963208531 w_022
 - 0.00385763257559 w_023 - 0.000314718903532 w_024 - 0.0157173371181 w_025
 - 0.000731782129164 w_026 - 0.0148113067014 w_027 - 0.00254151695523 w_028
 - 0.00558312548435 w_029 - 0.0107274446312 w_030 - 0.00209097945033 w_031
 - 0.0191490069617 w_032 - 0.000502114188958 w_033 - 0.00570994344869 w_034
 - 0.00783621753185 w_035 - 0.00476689917638 w_036 - 0.0149962748487 w_037
 - 0.00143373068618 w_038 - 0.00841893293099 w_039 - 0.00141522375836 w_040
 - 0.00079964086447 w_041 - 0.00205790969408 w_042 - 0.00801865741037 w_043
 - 0.000862544192875 w_044 - 0.0043615671181 w_045 - 0.00765772175269 w_046
 - 0.00406039973548 w_047 - worst_relative_error <= -1
channel_neg_2: - 0.00293517009826 w_000 - 0.0017228064978 w_001
 - 0.00457443341727 w_002 - 0.00144077420629 w_003 - 0.000484273934726 w_004
 - 0.00280417715894 w_005 - 0.00208433318521 w_006 - 0.00112941292648 w_007
 - 0.00234345529057 w_008 - 0.00130425122204 w_009 - 0.00293250382659 w_010
 - 0.00094455142448 w_011 - 0.000414506492865 w_012 - 0.00190677924258 w_013
 - 0.00493961388436 w_014 - 0.00534913346171 w_015 - 0.00157813657236 w_016
 - 0.000695156273145 w_017 - 0.003109169012 w_018 - 0.00456149706216 w_019
 - 0.000706018861403 w_020 - 0.00116585197255 w_021 - 0.003916061818 w_022
 - 0.000885004690663 w_023 - 0.00277435441663 w_024 - 0.00127931664445 w_025
 - 0.00489107786501 w_026 - 0.00408561694564 w_027 - 0.00371080827532 w_028
 - 0.00253231620007 w_029 - 0.00107509998519 w_030 - 0.00207939564509 w_031
 - 0.00188085715696 w_032 - 0.00395338962129 w_033 - 0.00221236360045 w_034
 - 0.00103006961932 w_035 - 0.00500760381178 w_036 - 0.00314062114255 w_037
 - 0.000824865452032 w_038 - 0.00319868661433 w_039 - 0.00217162889448 w_040
 - 0.00236735298474 w_041 - 0.000672443588604 w_042 - 0.000311904409223 w_043
 - 0.00360361427937 w_044 - 0.00249064336148 w_045 - 0.00212304349973 w_046
 - 0.00420298227423 w_047 - worst_relative_error <= -1
channel_neg_3: - 0.00357822614929 w_000 - 0.00280192077886 w_001
 - 0.00243645285118 w_002 - 0.000101885173996 w_003 - 0.001495938094 w_004
 - 0.00169939446611 w_005 - 0.000495767919075 w_006 - 0.00402956648094 w_007
 - 0.000409738527164 w_008 - 0.00087410885795 w_009 - 0.00222232129906 w_010
 - 0.00140394316032 w_011 - 0.00167066567283 w_013 - 0.00129483654102 w_014
 - 0.00409832719929 w_015 - 0.00344996700113 w_016 - 0.00114648293635 w_017
 - 0.00312845569706 w_018 - 0.00156516977618 w_019 - 0.000215701431542 w_021
 - 0.00206172263496 w_023 - 0.0037331732475 w_024 - 0.00186077806991 w_026
 - 0.0026645563301 w_028 - 0.00149797893724 w_029 - 1.00472282523e-05 w_030
 - 0.00525532832772 w_031 - 0.000204555287699 w_032 - 0.00239799080553 w_033
 - 0.00346409591586 w_034 - 0.000603618634845 w_036 - 0.00478075378074 w_038
 - 0.00121383076323 w_039 - 0.00273268909669 w_040 - 0.00295105932323 w_041
 - 0.00171823301909 w_042 - 0.00261102344207 w_043 - 0.00441120416659 w_044
 - 0.00161367905008 w_045 - 0.00146689532484 w_046 - 0.000829995246405 w_047
 - worst_relative_error <= -1
channel_pos_0: 0.00287710645294 w_000 + 0.00260309631456 w_001
 + 0.00274010138375 w_002 + 0.00287710645294 w_003 + 0.00287710645294 w_004
 + 0.00287710645294 w_005 + 0.00287710645294 w_006 + 0.00287710645294 w_007
 + 0.00287710645294 w_008 + 0.00274010138375 w_009 + 0.00260309631456 w_010
 + 0.00260309631456 w_011 + 0.00274010138375 w_012 + 0.00274010138375 w_013
 + 0.00274010138375 w_014 + 0.00287710645294 w_015 + 0.00274010138375 w_016
 + 0.00274010138375 w_017 + 0.00274010138375 w_018 + 0.00260309631456 w_019
 + 0.00260309631456 w_020 + 0.00287710645294 w_021 + 0.00274010138375 w_022
 + 0.00274010138375 w_023 + 0.00274010138375 w_024 + 0.00287710645294 w_025
 + 0.00260309631456 w_026 + 0.00260309631456 w_027 + 0.00274010138375 w_028
 + 0.00260309631456 w_029 + 0.00287710645294 w_030 + 0.00287710645294 w_031
 + 0.00287710645294 w_032 + 0.00260309631456 w_033 + 0.00287710645294 w_034
 + 0.00260309631456 w_035 + 0.00260309631456 w_036 + 0.00274010138375 w_037
 + 0.00287710645294 w_038 + 0.00287710645294 w_039 + 0.00274010138375 w_040
 + 0.00274010138375 w_041 + 0.00260309631456 w_042 + 0.00287710645294 w_043
 + 0.00287710645294 w_044 + 0.00274010138375 w_045 + 0.00260309631456 w_046
 + 0.00274010138375 w_047 - worst_relative_error <= 1
channel_pos_1: 0.00399931676063 w_000 + 1.51696129595e-05 w_001
 + 0.00133239767161 w_002 + 0.0122054705872 w_003 + 0.0112572686465 w_004
 + 0.0128335936945 w_005 + 0.0132699728939 w_006 + 0.00247881588833 w_007
 + 0.00684948477421 w_008 + 0.00845068798746 w_009 + 0.00123642458695 w_010
 + 0.00392599696466 w_011 + 0.023738219405 w_012 + 0.00298993071431 w_013
 + 0.0103231238804 w_014 + 0.000827451821562 w_015 + 0.000388746614774 w_016
 + 0.00440748047999 w_017 + 0.000853037902087 w_018 + 0.00369460980165 w_019
 + 0.0108391941133 w_020 + 0.011927057624 w_021 + 0.00908963208531 w_022
 + 0.00385763257559 w_023 + 0.000314718903532 w_024 + 0.0157173371181 w_025
 + 0.000731782129164 w_026 + 0.0148113067014 w_027 + 0.00254151695523 w_028
 + 0.00558312548435 w_029 + 0.0107274446312 w_030 + 0.00209097945033 w_031
 + 0.0191490069617 w_032 + 0.000502114188958 w_033 + 0.00570994344869 w_034
 + 0.00783621753185 w_035 + 0.00476689917638 w_036 + 0.0149962748487 w_037
 + 0.00143373068618 w_038 + 0.00841893293099 w_039 + 0.00141522375836 w_040
 + 0.00079964086447 w_041 + 0.00205790969408 w_042 + 0.00801865741037 w_043
 + 0.000862544192875 w_044 + 0.0043615671181 w_045 + 0.00765772175269 w_046
 + 0.00406039973548 w_047 - worst_relative_error <= 1
channel_pos_2: 0.00293517009826 w_000 + 0.0017228064978 w_001
 + 0.00457443341727 w_002 + 0.00144077420629 w_003 + 0.000484273934726 w_004
 + 0.00280417715894 w_005 + 0.00208433318521 w_006 + 0.00112941292648 w_007
 + 0.00234345529057 w_008 + 0.00130425122204 w_009 + 0.00293250382659 w_010
 + 0.00094455142448 w_011 + 0.000414506492865 w_012 + 0.00190677924258 w_013
 + 0.00493961388436 w_014 + 0.00534913346171 w_015 + 0.00157813657236 w_016
 + 0.000695156273145 w_017 + 0.003109169012 w_018 + 0.00456149706216 w_019
 + 0.000706018861403 w_020 + 0.00116585197255 w_021 + 0.003916061818 w_022
 + 0.000885004690663 w_023 + 0.00277435441663 w_024 + 0.00127931664445 w_025
 + 0.00489107786501 w_026 + 0.00408561694564 w_027 + 0.00371080827532 w_028
 + 0.00253231620007 w_029 + 0.00107509998519 w_030 + 0.00207939564509 w_031
 + 0.00188085715696 w_032 + 0.00395338962129 w_033 + 0.00221236360045 w_034
 + 0.00103006961932 w_035 + 0.00500760381178 w_036 + 0.00314062114255 w_037
 + 0.000824865452032 w_038 + 0.00319868661433 w_039 + 0.00217162889448 w_040
 + 0.00236735298474 w_041 + 0.000672443588604 w_042 + 0.000311904409223 w_043
 + 0.00360361427937 w_044 + 0.00249064336148 w_045 + 0.00212304349973 w_046
 + 0.00420298227423 w_047 - worst_relative_error <= 1
channel_pos_3: 0.00357822614929 w_000 + 0.00280192077886 w_001
 + 0.00243645285118 w_002 + 0.000101885173996 w_003 + 0.001495938094 w_004
 + 0.00169939446611 w_005 + 0.000495767919075 w_006 + 0.00402956648094 w_007
 + 0.000409738527164 w_008 + 0.00087410885795 w_009 + 0.00222232129906 w_010
 + 0.00140394316032 w_011 + 0.00167066567283 w_013 + 0.00129483654102 w_014
 + 0.00409832719929 w_015 + 0.00344996700113 w_016 + 0.00114648293635 w_017
 + 0.00312845569706 w_018 + 0.00156516977618 w_019 + 0.000215701431542 w_021
 + 0.00206172263496 w_023 + 0.0037331732475 w_024 + 0.00186077806991 w_026
 + 0.0026645563301 w_028 + 0.00149797893724 w_029 + 1.00472282523e-05 w_030
 + 0.00525532832772 w_031 + 0.000204555287699 w_032 + 0.00239799080553 w_033
 + 0.00346409591586 w_034 + 0.000603618634845 w_036 + 0.00478075378074 w_038
 + 0.00121383076323 w_039 + 0.00273268909669 w_040 + 0.00295105932323 w_041
 + 0.00171823301909 w_042 + 0.00261102344207 w_043 + 0.00441120416659 w_044
 + 0.00161367905008 w_045 + 0.00146689532484 w_046 + 0.000829995246405 w_047
 - worst_relative_error <= 1
dev_neg_0: 0.166666666667 w_000 + worst_absolute_deviation >= 1
dev_neg_1: 0.0526315789474 w_001 + worst_absolute_deviation >= 1
dev_neg_10: 0.0666666666667 w_010 + worst_absolute_deviation >= 1
dev_neg_11: 0.25 w_011 + worst_absolute_deviation >= 1
dev_neg_12: w_012 + worst_absolute_deviation >= 1
dev_neg_13: 0.125 w_013 + worst_absolute_deviation >= 1
dev_neg_14: 0.25 w_014 + worst_absolute_deviation >= 1
dev_neg_15: 0.0416666666667 w_015 + worst_absolute_deviation >= 1
dev_neg_16: 0.0555555555556 w_016 + worst_absolute_deviation >= 1
dev_neg_17: 0.2 w_017 + worst_absolute_deviation >= 1
dev_neg_18: 0.0625 w_018 + worst_absolute_deviation >= 1
dev_neg_19: 0.111111111111 w_019 + worst_absolute_deviation >= 1
dev_neg_2: 0.142857142857 w_002 + worst_absolute_deviation >= 1
dev_neg_20: 0.5 w_020 + worst_absolute_deviation >= 1
dev_neg_21: w_021 + worst_absolute_deviation >= 1
dev_neg_22: 0.5 w_022 + worst_absolute_deviation >= 1
dev_neg_23: 0.166666666667 w_023 + worst_absolute_deviation >= 1
dev_neg_24: 0.0434782608696 w_024 + worst_absolute_deviation >= 1
dev_neg_25: w_025 + worst_absolute_deviation >= 1
dev_neg_26: 0.1 w_026 + worst_absolute_deviation >= 1
dev_neg_27: w_027 + worst_absolute_deviation >= 1
dev_neg_28: 0.0714285714286 w_028 + worst_absolute_deviation >= 1
dev_neg_29: 0.25 w_029 + worst_absolute_deviation >= 1
dev_neg_3: 0.25 w_003 + worst_absolute_deviation >= 1
dev_neg_30: 0.333333333333 w_030 + worst_absolute_deviation >= 1
dev_neg_31: 0.0769230769231 w_031 + worst_absolute_deviation >= 1
dev_neg_32: w_032 + worst_absolute_deviation >= 1
dev_neg_33: 0.0434782608696 w_033 + worst_absolute_deviation >= 1
dev_neg_34: 0.25 w_034 + worst_absolute_deviation >= 1
dev_neg_35: 0.25 w_035 + worst_absolute_deviation >= 1
dev_neg_36: 0.166666666667 w_036 + worst_absolute_deviation >= 1
dev_neg_37: w_037 + worst_absolute_deviation >= 1
dev_neg_38: 0.05 w_038 + worst_absolute_deviation >= 1
dev_neg_39: 0.25 w_039 + worst_absolute_deviation >= 1
dev_neg_4: 0.25 w_004 + worst_absolute_deviation >= 1
dev_neg_40: 0.0526315789474 w_040 + worst_absolute_deviation >= 1
dev_neg_41: 0.111111111111 w_041 + worst_absolute_deviation >= 1
dev_neg_42: 0.125 w_042 + worst_absolute_deviation >= 1
dev_neg_43: 0.5 w_043 + worst_absolute_deviation >= 1
dev_neg_44: 0.0526315789474 w_044 + worst_absolute_deviation >= 1
dev_neg_45: 0.333333333333 w_045 + worst_absolute_deviation >= 1
dev_neg_46: w_046 + worst_absolute_deviation >= 1
dev_neg_47: 0.2 w_047 + worst_absolute_deviation >= 1
dev_neg_5: 0.333333333333 w_005 + worst_absolute_deviation >= 1
dev_neg_6: w_006 + worst_absolute_deviation >= 1
dev_neg_7: 0.333333333333 w_007 + worst_absolute_deviation >= 1
dev_neg_8: 0.5 w_008 + worst_absolute_deviation >= 1
dev_neg_9: 0.333333333333 w_009 + worst_absolute_deviation >= 1
dev_pos_0: - 0.166666666667 w_000 + worst_absolute_deviation >= -1
dev_pos_1: - 0.0526315789474 w_001 + worst_absolute_deviation >= -1
dev_pos_10: - 0.0666666666667 w_010 + worst_absolute_deviation >= -1
dev_pos_11: - 0.25 w_011 + worst_absolute_deviation >= -1
dev_pos_12: - w_012 + worst_absolute_deviation >= -1
dev_pos_13: - 0.125 w_013 + worst_absolute_deviation >= -1
dev_pos_14: - 0.25 w_014 + worst_absolute_deviation >= -1
dev_pos_15: - 0.0416666666667 w_015 + worst_absolute_deviation >= -1
dev_pos_16: - 0.0555555555556 w_016 + worst_absolute_deviation >= -1
dev_pos_17: - 0.2 w_017 + worst_absolute_deviation >= -1
dev_pos_18: - 0.0625 w_018 + worst_absolute_deviation >= -1
dev_pos_19: - 0.111111111111 w_019 + worst_absolute_deviation >= -1
dev_pos_2: - 0.142857142857 w_002 + worst_absolute_deviation >= -1
dev_pos_20: - 0.5 w_020 + worst_absolute_deviation >= -1
dev_pos_21: - w_021 + worst_absolute_deviation >= -1
dev_pos_22: - 0.5 w_022 + worst_absolute_deviation >= -1
dev_pos_23: - 0.166666666667 w_023 + worst_absolute_deviation >= -1
dev_pos_24: - 0.0434782608696 w_024 + worst_absolute_deviation >= -1
dev_pos_25: - w_025 + worst_absolute_deviation >= -1
dev_pos_26: - 0.1 w_026 + worst_absolute_deviation >= -1
dev_pos_27: - w_027 + worst_absolute_deviation >= -1
dev_pos_28: - 0.0714285714286 w_028 + worst_absolute_deviation >= -1
dev_pos_29: - 0.25 w_029 + worst_absolute_deviation >= -1
dev_pos_3: - 0.25 w_003 + worst_absolute_deviation >= -1
dev_pos_30: - 0.333333333333 w_030 + worst_absolute_deviation >= -1
dev_pos_31: - 0.0769230769231 w_031 + worst_absolute_deviation >= -1
dev_pos_32: - w_032 + worst_absolute_deviation >= -1
dev_pos_33: - 0.0434782608696 w_033 + worst_absolute_deviation >= -1
dev_pos_34: - 0.25 w_034 + worst_absolute_deviation >= -1
dev_pos_35: - 0.25 w_035 + worst_absolute_deviation >= -1
dev_pos_36: - 0.166666666667 w_036 + worst_absolute_deviation >= -1
dev_pos_37: - w_037 + worst_absolute_deviation >= -1
dev_pos_38: - 0.05 w_038 + worst_absolute_deviation >= -1
dev_pos_39: - 0.25 w_039 + worst_absolute_deviation >= -1
dev_pos_4: - 0.25 w_004 + worst_absolute_deviation >= -1
dev_pos_40: - 0.0526315789474 w_040 + worst_absolute_deviation >= -1
dev_pos_41: - 0.111111111111 w_041 + worst_absolute_deviation >= -1
dev_pos_42: - 0.125 w_042 + worst_absolute_deviation >= -1
dev_pos_43: - 0.5 w_043 + worst_absolute_deviation >= -1
dev_pos_44: - 0.0526315789474 w_044 + worst_absolute_deviation >= -1
dev_pos_45: - 0.333333333333 w_045 + worst_absolute_deviation >= -1
dev_pos_46: - w_046 + worst_absolute_deviation >= -1
dev_pos_47: - 0.2 w_047 + worst_absolute_deviation >= -1
dev_pos_5: - 0.333333333333 w_005 + worst_absolute_deviation >= -1
dev_pos_6: - w_006 + worst_absolute_deviation >= -1
dev_pos_7: - 0.333333333333 w_007 + worst_absolute_deviation >= -1
dev_pos_8: - 0.5 w_008 + worst_absolute_deviation >= -1
dev_pos_9: - 0.333333333333 w_009 + worst_absolute_deviation >= -1
primary_band: worst_relative_error <= 1e-06
total_days: w_000 + w_001 + w_002 + w_003 + w_004 + w_005 + w_006 + w_007
 + w_008 + w_009 + w_010 + w_011 + w_012 + w_013 + w_014 + w_015 + w_016
 + w_017 + w_018 + w_019 + w_020 + w_021 + w_022 + w_023 + w_024 + w_025
 + w_026 + w_027 + w_028 + w_029 + w_030 + w_031 + w_032 + w_033 + w_034
 + w_035 + w_036 + w_037 + w_038 + w_039 + w_040 + w_041 + w_042 + w_043
 + w_044 + w_045 + w_046 + w_047 = 365
Bounds
 3 <= w_000 <= 12
 9.5 <= w_001 <= 38
 3.5 <= w_002 <= 14
 2 <= w_003 <= 8
 2 <= w_004 <= 8
 1.5 <= w_005 <= 6
 0.5 <= w_006 <= 2
 1.5 <= w_007 <= 6
 1 <= w_008 <= 4
 1.5 <= w_009 <= 6
 7.5 <= w_010 <= 30
 2 <= w_011 <= 8
 0.5 <= w_012 <= 2
 4 <= w_013 <= 16
 2 <= w_014 <= 8
 12 <= w_015 <= 48
 9 <= w_016 <= 36
 2.5 <= w_017 <= 10
 8 <= w_018 <= 32
 4.5 <= w_019 <= 18
 1 <= w_020 <= 4
 0.5 <= w_021 <= 2
 1 <= w_022 <= 4
 3 <= w_023 <= 12
 11.5 <= w_024 <= 46
 0.5 <= w_025 <= 2
 5 <= w_026 <= 20
 0.5 <= w_027 <= 2
 7 <= w_028 <= 28
 2 <= w_029 <= 8
 1.5 <= w_030 <= 6
 6.5 <= w_031 <= 26
 0.5 <= w_032 <= 2
 11.5 <= w_033 <= 46
 2 <= w_034 <= 8
 2 <= w_035 <= 8
 3 <= w_036 <= 12
 0.5 <= w_037 <= 2
 10 <= w_038 <= 40
 2 <= w_039 <= 8
 9.5 <= w_040 <= 38
 4.5 <= w_041 <= 18
 4 <= w_042 <= 16
 1 <= w_043 <= 4
 9.5 <= w_044 <= 38
 1.5 <= w_045 <= 6
 0.5 <= w_046 <= 2
 2.5 <= w_047 <= 10
End
