*SENSE:Minimize
NAME          MODEL
ROWS
 N  OBJ
 E  C0000000
 E  C0000001
 G  C0000002
 L  C0000003
 E  C0000004
 E  C0000005
 L  C0000006
 L  C0000007
 L  C0000008
 L  C0000009
 L  C0000010
 E  C0000011
 E  C0000012
 G  C0000013
 L  C0000014
 L  C0000015
 G  C0000016
 E  C0000017
 E  C0000018
 L  C0000019
 L  C0000020
 L  C0000021
 L  C0000022
 L  C0000023
 E  C0000024
 E  C0000025
 G  C0000026
 L  C0000027
 L  C0000028
 G  C0000029
 E  C0000030
 E  C0000031
 L  C0000032
 L  C0000033
 L  C0000034
 L  C0000035
 L  C0000036
 E  C0000037
 E  C0000038
 G  C0000039
 L  C0000040
 L  C0000041
 G  C0000042
 E  C0000043
 E  C0000044
 L  C0000045
 L  C0000046
 L  C0000047
 L  C0000048
 L  C0000049
 E  C0000050
 E  C0000051
 G  C0000052
 L  C0000053
 L  C0000054
 G  C0000055
 E  C0000056
 E  C0000057
 L  C0000058
 L  C0000059
 L  C0000060
 L  C0000061
 L  C0000062
 E  C0000063
 E  C0000064
 G  C0000065
 L  C0000066
 L  C0000067
 G  C0000068
 E  C0000069
 E  C0000070
 L  C0000071
 L  C0000072
 L  C0000073
 L  C0000074
 L  C0000075
 E  C0000076
 E  C0000077
 G  C0000078
 L  C0000079
 L  C0000080
 G  C0000081
 E  C0000082
 E  C0000083
 L  C0000084
 L  C0000085
 L  C0000086
 L  C0000087
 L  C0000088
 E  C0000089
 E  C0000090
 G  C0000091
 L  C0000092
 L  C0000093
 G  C0000094
 E  C0000095
 E  C0000096
 L  C0000097
 L  C0000098
 L  C0000099
 L  C0000100
 L  C0000101
 E  C0000102
 E  C0000103
 G  C0000104
 L  C0000105
 L  C0000106
 G  C0000107
 E  C0000108
 E  C0000109
 L  C0000110
 L  C0000111
 L  C0000112
 L  C0000113
 L  C0000114
 E  C0000115
 E  C0000116
 G  C0000117
 L  C0000118
 L  C0000119
 G  C0000120
 E  C0000121
 E  C0000122
 L  C0000123
 L  C0000124
 L  C0000125
 L  C0000126
 L  C0000127
 E  C0000128
 E  C0000129
 G  C0000130
 L  C0000131
 L  C0000132
 G  C0000133
 E  C0000134
 E  C0000135
 L  C0000136
 L  C0000137
 L  C0000138
 L  C0000139
 L  C0000140
 E  C0000141
 E  C0000142
 G  C0000143
 L  C0000144
 L  C0000145
 G  C0000146
 E  C0000147
 E  C0000148
 L  C0000149
 L  C0000150
 L  C0000151
 L  C0000152
 L  C0000153
 E  C0000154
 E  C0000155
 G  C0000156
 L  C0000157
 L  C0000158
 G  C0000159
 E  C0000160
 E  C0000161
 L  C0000162
 L  C0000163
 L  C0000164
 L  C0000165
 L  C0000166
 E  C0000167
 E  C0000168
 G  C0000169
 L  C0000170
 L  C0000171
 G  C0000172
 E  C0000173
 E  C0000174
 L  C0000175
 L  C0000176
 L  C0000177
 L  C0000178
 L  C0000179
 E  C0000180
 E  C0000181
 G  C0000182
 L  C0000183
 L  C0000184
 G  C0000185
 E  C0000186
 E  C0000187
 L  C0000188
 L  C0000189
 L  C0000190
 L  C0000191
 L  C0000192
 E  C0000193
 E  C0000194
 G  C0000195
 L  C0000196
 L  C0000197
 G  C0000198
 E  C0000199
 E  C0000200
 L  C0000201
 L  C0000202
 L  C0000203
 L  C0000204
 L  C0000205
 E  C0000206
 E  C0000207
 G  C0000208
 L  C0000209
 L  C0000210
 G  C0000211
 E  C0000212
 E  C0000213
 L  C0000214
 L  C0000215
 L  C0000216
 L  C0000217
 L  C0000218
 E  C0000219
 E  C0000220
 G  C0000221
 L  C0000222
 L  C0000223
 G  C0000224
 E  C0000225
 E  C0000226
 L  C0000227
 L  C0000228
 L  C0000229
 L  C0000230
 L  C0000231
 E  C0000232
 E  C0000233
 G  C0000234
 L  C0000235
 L  C0000236
 G  C0000237
 E  C0000238
 E  C0000239
 L  C0000240
 L  C0000241
 L  C0000242
 L  C0000243
 L  C0000244
 E  C0000245
 E  C0000246
 G  C0000247
 L  C0000248
 L  C0000249
 G  C0000250
 E  C0000251
 E  C0000252
 L  C0000253
 L  C0000254
 L  C0000255
 L  C0000256
 L  C0000257
 E  C0000258
 E  C0000259
 G  C0000260
 L  C0000261
 L  C0000262
 G  C0000263
 E  C0000264
 E  C0000265
 L  C0000266
 L  C0000267
 L  C0000268
 L  C0000269
 L  C0000270
 E  C0000271
 E  C0000272
 G  C0000273
 L  C0000274
 L  C0000275
 G  C0000276
 E  C0000277
 E  C0000278
 L  C0000279
 L  C0000280
 L  C0000281
 L  C0000282
 L  C0000283
 E  C0000284
 E  C0000285
 G  C0000286
 L  C0000287
 L  C0000288
 G  C0000289
 E  C0000290
 E  C0000291
 L  C0000292
 L  C0000293
 L  C0000294
 L  C0000295
 L  C0000296
 E  C0000297
 E  C0000298
 G  C0000299
 L  C0000300
 L  C0000301
 G  C0000302
 E  C0000303
 E  C0000304
 L  C0000305
 L  C0000306
 L  C0000307
 L  C0000308
 L  C0000309
 E  C0000310
 E  C0000311
COLUMNS
    X0000000  C0000007   1.000000000000e+00
    X0000000  C0000009   1.000000000000e+00
    X0000000  C0000011  -9.500000000000e-01
    X0000000  C0000012  -1.000000000000e+00
    X0000001  C0000020   1.000000000000e+00
    X0000001  C0000022   1.000000000000e+00
    X0000001  C0000024  -9.500000000000e-01
    X0000001  C0000025  -1.000000000000e+00
    X0000002  C0000033   1.000000000000e+00
    X0000002  C0000035   1.000000000000e+00
    X0000002  C0000037  -9.500000000000e-01
    X0000002  C0000038  -1.000000000000e+00
    X0000003  C0000046   1.000000000000e+00
    X0000003  C0000048   1.000000000000e+00
    X0000003  C0000050  -9.500000000000e-01
    X0000003  C0000051  -1.000000000000e+00
    X0000004  C0000059   1.000000000000e+00
    X0000004  C0000061   1.000000000000e+00
    X0000004  C0000063  -9.500000000000e-01
    X0000004  C0000064  -1.000000000000e+00
    X0000005  C0000072   1.000000000000e+00
    X0000005  C0000074   1.000000000000e+00
    X0000005  C0000076  -9.500000000000e-01
    X0000005  C0000077  -1.000000000000e+00
    X0000006  C0000085   1.000000000000e+00
    X0000006  C0000087   1.000000000000e+00
    X0000006  C0000089  -9.500000000000e-01
    X0000006  C0000090  -1.000000000000e+00
    X0000007  C0000098   1.000000000000e+00
    X0000007  C0000100   1.000000000000e+00
    X0000007  C0000102  -9.500000000000e-01
    X0000007  C0000103  -1.000000000000e+00
    X0000008  C0000111   1.000000000000e+00
    X0000008  C0000113   1.000000000000e+00
    X0000008  C0000115  -9.500000000000e-01
    X0000008  C0000116  -1.000000000000e+00
    X0000009  C0000124   1.000000000000e+00
    X0000009  C0000126   1.000000000000e+00
    X0000009  C0000128  -9.500000000000e-01
    X0000009  C0000129  -1.000000000000e+00
    X0000010  C0000137   1.000000000000e+00
    X0000010  C0000139   1.000000000000e+00
    X0000010  C0000141  -9.500000000000e-01
    X0000010  C0000142  -1.000000000000e+00
    X0000011  C0000150   1.000000000000e+00
    X0000011  C0000152   1.000000000000e+00
    X0000011  C0000154  -9.500000000000e-01
    X0000011  C0000155  -1.000000000000e+00
    X0000012  C0000163   1.000000000000e+00
    X0000012  C0000165   1.000000000000e+00
    X0000012  C0000167  -9.500000000000e-01
    X0000012  C0000168  -1.000000000000e+00
    X0000013  C0000176   1.000000000000e+00
    X0000013  C0000178   1.000000000000e+00
    X0000013  C0000180  -9.500000000000e-01
    X0000013  C0000181  -1.000000000000e+00
    X0000014  C0000189   1.000000000000e+00
    X0000014  C0000191   1.000000000000e+00
    X0000014  C0000193  -9.500000000000e-01
    X0000014  C0000194  -1.000000000000e+00
    X0000015  C0000202   1.000000000000e+00
    X0000015  C0000204   1.000000000000e+00
    X0000015  C0000206  -9.500000000000e-01
    X0000015  C0000207  -1.000000000000e+00
    X0000016  C0000215   1.000000000000e+00
    X0000016  C0000217   1.000000000000e+00
    X0000016  C0000219  -9.500000000000e-01
    X0000016  C0000220  -1.000000000000e+00
    X0000017  C0000228   1.000000000000e+00
    X0000017  C0000230   1.000000000000e+00
    X0000017  C0000232  -9.500000000000e-01
    X0000017  C0000233  -1.000000000000e+00
    X0000018  C0000241   1.000000000000e+00
    X0000018  C0000243   1.000000000000e+00
    X0000018  C0000245  -9.500000000000e-01
    X0000018  C0000246  -1.000000000000e+00
    X0000019  C0000254   1.000000000000e+00
    X0000019  C0000256   1.000000000000e+00
    X0000019  C0000258  -9.500000000000e-01
    X0000019  C0000259  -1.000000000000e+00
    X0000020  C0000267   1.000000000000e+00
    X0000020  C0000269   1.000000000000e+00
    X0000020  C0000271  -9.500000000000e-01
    X0000020  C0000272  -1.000000000000e+00
    X0000021  C0000280   1.000000000000e+00
    X0000021  C0000282   1.000000000000e+00
    X0000021  C0000284  -9.500000000000e-01
    X0000021  C0000285  -1.000000000000e+00
    X0000022  C0000293   1.000000000000e+00
    X0000022  C0000295   1.000000000000e+00
    X0000022  C0000297  -9.500000000000e-01
    X0000022  C0000298  -1.000000000000e+00
    X0000023  C0000306   1.000000000000e+00
    X0000023  C0000308   1.000000000000e+00
    X0000023  C0000310  -9.500000000000e-01
    X0000023  C0000311  -1.000000000000e+00
    MARK      'MARKER'                 'INTORG'
    X0000024  C0000009  -2.000000000000e+01
    X0000024  C0000010   2.000000000000e+01
    MARK      'MARKER'                 'INTEND'
    MARK      'MARKER'                 'INTORG'
    X0000025  C0000022  -2.000000000000e+01
    X0000025  C0000023   2.000000000000e+01
    MARK      'MARKER'                 'INTEND'
    MARK      'MARKER'                 'INTORG'
    X0000026  C0000035  -2.000000000000e+01
    X0000026  C0000036   2.000000000000e+01
    MARK      'MARKER'                 'INTEND'
    MARK      'MARKER'                 'INTORG'
    X0000027  C0000048  -2.000000000000e+01
    X0000027  C0000049   2.000000000000e+01
    MARK      'MARKER'                 'INTEND'
    MARK      'MARKER'                 'INTORG'
    X0000028  C0000061  -2.000000000000e+01
    X0000028  C0000062   2.000000000000e+01
    MARK      'MARKER'                 'INTEND'
    MARK      'MARKER'                 'INTORG'
    X0000029  C0000074  -2.000000000000e+01
    X0000029  C0000075   2.000000000000e+01
    MARK      'MARKER'                 'INTEND'
    MARK      'MARKER'                 'INTORG'
    X0000030  C0000087  -2.000000000000e+01
    X0000030  C0000088   2.000000000000e+01
    MARK      'MARKER'                 'INTEND'
    MARK      'MARKER'                 'INTORG'
    X0000031  C0000100  -2.000000000000e+01
    X0000031  C0000101   2.000000000000e+01
    MARK      'MARKER'                 'INTEND'
    MARK      'MARKER'                 'INTORG'
    X0000032  C0000113  -2.000000000000e+01
    X0000032  C0000114   2.000000000000e+01
    MARK      'MARKER'                 'INTEND'
    MARK      'MARKER'                 'INTORG'
    X0000033  C0000126  -2.000000000000e+01
    X0000033  C0000127   2.000000000000e+01
    MARK      'MARKER'                 'INTEND'
    MARK      'MARKER'                 'INTORG'
    X0000034  C0000139  -2.000000000000e+01
    X0000034  C0000140   2.000000000000e+01
    MARK      'MARKER'                 'INTEND'
    MARK      'MARKER'                 'INTORG'
    X0000035  C0000152  -2.000000000000e+01
    X0000035  C0000153   2.000000000000e+01
    MARK      'MARKER'                 'INTEND'
    MARK      'MARKER'                 'INTORG'
    X0000036  C0000165  -2.000000000000e+01
    X0000036  C0000166   2.000000000000e+01
    MARK      'MARKER'                 'INTEND'
    MARK      'MARKER'                 'INTORG'
    X0000037  C0000178  -2.000000000000e+01
    X0000037  C0000179   2.000000000000e+01
    MARK      'MARKER'                 'INTEND'
    MARK      'MARKER'                 'INTORG'
    X0000038  C0000191  -2.000000000000e+01
    X0000038  C0000192   2.000000000000e+01
    MARK      'MARKER'                 'INTEND'
    MARK      'MARKER'                 'INTORG'
    X0000039  C0000204  -2.000000000000e+01
    X0000039  C0000205   2.000000000000e+01
    MARK      'MARKER'                 'INTEND'
    MARK      'MARKER'                 'INTORG'
    X0000040  C0000217  -2.000000000000e+01
    X0000040  C0000218   2.000000000000e+01
    MARK      'MARKER'                 'INTEND'
    MARK      'MARKER'                 'INTORG'
    X0000041  C0000230  -2.000000000000e+01
    X0000041  C0000231   2.000000000000e+01
    MARK      'MARKER'                 'INTEND'
    MARK      'MARKER'                 'INTORG'
    X0000042  C0000243  -2.000000000000e+01
    X0000042  C0000244   2.000000000000e+01
    MARK      'MARKER'                 'INTEND'
    MARK      'MARKER'                 'INTORG'
    X0000043  C0000256  -2.000000000000e+01
    X0000043  C0000257   2.000000000000e+01
    MARK      'MARKER'                 'INTEND'
    MARK      'MARKER'                 'INTORG'
    X0000044  C0000269  -2.000000000000e+01
    X0000044  C0000270   2.000000000000e+01
    MARK      'MARKER'                 'INTEND'
    MARK      'MARKER'                 'INTORG'
    X0000045  C0000282  -2.000000000000e+01
    X0000045  C0000283   2.000000000000e+01
    MARK      'MARKER'                 'INTEND'
    MARK      'MARKER'                 'INTORG'
    X0000046  C0000295  -2.000000000000e+01
    X0000046  C0000296   2.000000000000e+01
    MARK      'MARKER'                 'INTEND'
    MARK      'MARKER'                 'INTORG'
    X0000047  C0000308  -2.000000000000e+01
    X0000047  C0000309   2.000000000000e+01
    MARK      'MARKER'                 'INTEND'
    X0000048  C0000008   1.000000000000e+00
    X0000048  C0000010   1.000000000000e+00
    X0000048  C0000011   1.052631578947e+00
    X0000048  C0000012   1.000000000000e+00
    X0000048  OBJ        1.000000000000e+01
    X0000049  C0000021   1.000000000000e+00
    X0000049  C0000023   1.000000000000e+00
    X0000049  C0000024   1.052631578947e+00
    X0000049  C0000025   1.000000000000e+00
    X0000049  OBJ        1.000000000000e+01
    X0000050  C0000034   1.000000000000e+00
    X0000050  C0000036   1.000000000000e+00
    X0000050  C0000037   1.052631578947e+00
    X0000050  C0000038   1.000000000000e+00
    X0000050  OBJ        1.000000000000e+01
    X0000051  C0000047   1.000000000000e+00
    X0000051  C0000049   1.000000000000e+00
    X0000051  C0000050   1.052631578947e+00
    X0000051  C0000051   1.000000000000e+00
    X0000051  OBJ        1.000000000000e+01
    X0000052  C0000060   1.000000000000e+00
    X0000052  C0000062   1.000000000000e+00
    X0000052  C0000063   1.052631578947e+00
    X0000052  C0000064   1.000000000000e+00
    X0000052  OBJ        1.000000000000e+01
    X0000053  C0000073   1.000000000000e+00
    X0000053  C0000075   1.000000000000e+00
    X0000053  C0000076   1.052631578947e+00
    X0000053  C0000077   1.000000000000e+00
    X0000053  OBJ        1.000000000000e+01
    X0000054  C0000086   1.000000000000e+00
    X0000054  C0000088   1.000000000000e+00
    X0000054  C0000089   1.052631578947e+00
    X0000054  C0000090   1.000000000000e+00
    X0000054  OBJ        1.000000000000e+01
    X0000055  C0000099   1.000000000000e+00
    X0000055  C0000101   1.000000000000e+00
    X0000055  C0000102   1.052631578947e+00
    X0000055  C0000103   1.000000000000e+00
    X0000055  OBJ        1.000000000000e+01
    X0000056  C0000112   1.000000000000e+00
    X0000056  C0000114   1.000000000000e+00
    X0000056  C0000115   1.052631578947e+00
    X0000056  C0000116   1.000000000000e+00
    X0000056  OBJ        1.000000000000e+01
    X0000057  C0000125   1.000000000000e+00
    X0000057  C0000127   1.000000000000e+00
    X0000057  C0000128   1.052631578947e+00
    X0000057  C0000129   1.000000000000e+00
    X0000057  OBJ        1.000000000000e+01
    X0000058  C0000138   1.000000000000e+00
    X0000058  C0000140   1.000000000000e+00
    X0000058  C0000141   1.052631578947e+00
    X0000058  C0000142   1.000000000000e+00
    X0000058  OBJ        1.000000000000e+01
    X0000059  C0000151   1.000000000000e+00
    X0000059  C0000153   1.000000000000e+00
    X0000059  C0000154   1.052631578947e+00
    X0000059  C0000155   1.000000000000e+00
    X0000059  OBJ        1.000000000000e+01
    X0000060  C0000164   1.000000000000e+00
    X0000060  C0000166   1.000000000000e+00
    X0000060  C0000167   1.052631578947e+00
    X0000060  C0000168   1.000000000000e+00
    X0000060  OBJ        1.000000000000e+01
    X0000061  C0000177   1.000000000000e+00
    X0000061  C0000179   1.000000000000e+00
    X0000061  C0000180   1.052631578947e+00
    X0000061  C0000181   1.000000000000e+00
    X0000061  OBJ        1.000000000000e+01
    X0000062  C0000190   1.000000000000e+00
    X0000062  C0000192   1.000000000000e+00
    X0000062  C0000193   1.052631578947e+00
    X0000062  C0000194   1.000000000000e+00
    X0000062  OBJ        1.000000000000e+01
    X0000063  C0000203   1.000000000000e+00
    X0000063  C0000205   1.000000000000e+00
    X0000063  C0000206   1.052631578947e+00
    X0000063  C0000207   1.000000000000e+00
    X0000063  OBJ        1.000000000000e+01
    X0000064  C0000216   1.000000000000e+00
    X0000064  C0000218   1.000000000000e+00
    X0000064  C0000219   1.052631578947e+00
    X0000064  C0000220   1.000000000000e+00
    X0000064  OBJ        1.000000000000e+01
    X0000065  C0000229   1.000000000000e+00
    X0000065  C0000231   1.000000000000e+00
    X0000065  C0000232   1.052631578947e+00
    X0000065  C0000233   1.000000000000e+00
    X0000065  OBJ        1.000000000000e+01
    X0000066  C0000242   1.000000000000e+00
    X0000066  C0000244   1.000000000000e+00
    X0000066  C0000245   1.052631578947e+00
    X0000066  C0000246   1.000000000000e+00
    X0000066  OBJ        1.000000000000e+01
    X0000067  C0000255   1.000000000000e+00
    X0000067  C0000257   1.000000000000e+00
    X0000067  C0000258   1.052631578947e+00
    X0000067  C0000259   1.000000000000e+00
    X0000067  OBJ        1.000000000000e+01
    X0000068  C0000268   1.000000000000e+00
    X0000068  C0000270   1.000000000000e+00
    X0000068  C0000271   1.052631578947e+00
    X0000068  C0000272   1.000000000000e+00
    X0000068  OBJ        1.000000000000e+01
    X0000069  C0000281   1.000000000000e+00
    X0000069  C0000283   1.000000000000e+00
    X0000069  C0000284   1.052631578947e+00
    X0000069  C0000285   1.000000000000e+00
    X0000069  OBJ        1.000000000000e+01
    X0000070  C0000294   1.000000000000e+00
    X0000070  C0000296   1.000000000000e+00
    X0000070  C0000297   1.052631578947e+00
    X0000070  C0000298   1.000000000000e+00
    X0000070  OBJ        1.000000000000e+01
    X0000071  C0000307   1.000000000000e+00
    X0000071  C0000309   1.000000000000e+00
    X0000071  C0000310   1.052631578947e+00
    X0000071  C0000311   1.000000000000e+00
    X0000071  OBJ        1.000000000000e+01
    X0000072  C0000000   1.000000000000e+00
    X0000072  C0000001  -1.000000000000e+00
    X0000072  C0000011  -1.000000000000e+00
    X0000073  C0000011   1.000000000000e+00
    X0000073  C0000024  -1.000000000000e+00
    X0000074  C0000024   1.000000000000e+00
    X0000074  C0000037  -1.000000000000e+00
    X0000075  C0000037   1.000000000000e+00
    X0000075  C0000050  -1.000000000000e+00
    X0000076  C0000050   1.000000000000e+00
    X0000076  C0000063  -1.000000000000e+00
    X0000077  C0000063   1.000000000000e+00
    X0000077  C0000076  -1.000000000000e+00
    X0000078  C0000076   1.000000000000e+00
    X0000078  C0000089  -1.000000000000e+00
    X0000079  C0000089   1.000000000000e+00
    X0000079  C0000102  -1.000000000000e+00
    X0000080  C0000102   1.000000000000e+00
    X0000080  C0000115  -1.000000000000e+00
    X0000081  C0000115   1.000000000000e+00
    X0000081  C0000128  -1.000000000000e+00
    X0000082  C0000128   1.000000000000e+00
    X0000082  C0000141  -1.000000000000e+00
    X0000083  C0000141   1.000000000000e+00
    X0000083  C0000154  -1.000000000000e+00
    X0000084  C0000154   1.000000000000e+00
    X0000084  C0000167  -1.000000000000e+00
    X0000085  C0000167   1.000000000000e+00
    X0000085  C0000180  -1.000000000000e+00
    X0000086  C0000180   1.000000000000e+00
    X0000086  C0000193  -1.000000000000e+00
    X0000087  C0000193   1.000000000000e+00
    X0000087  C0000206  -1.000000000000e+00
    X0000088  C0000206   1.000000000000e+00
    X0000088  C0000219  -1.000000000000e+00
    X0000089  C0000219   1.000000000000e+00
    X0000089  C0000232  -1.000000000000e+00
    X0000090  C0000232   1.000000000000e+00
    X0000090  C0000245  -1.000000000000e+00
    X0000091  C0000245   1.000000000000e+00
    X0000091  C0000258  -1.000000000000e+00
    X0000092  C0000258   1.000000000000e+00
    X0000092  C0000271  -1.000000000000e+00
    X0000093  C0000271   1.000000000000e+00
    X0000093  C0000284  -1.000000000000e+00
    X0000094  C0000284   1.000000000000e+00
    X0000094  C0000297  -1.000000000000e+00
    X0000095  C0000297   1.000000000000e+00
    X0000095  C0000310  -1.000000000000e+00
    X0000096  C0000001   1.000000000000e+00
    X0000096  C0000310   1.000000000000e+00
    X0000097  C0000005   1.000000000000e+00
    X0000097  OBJ        2.000000000000e+02
    X0000098  C0000018   1.000000000000e+00
    X0000098  OBJ        2.000000000000e+02
    X0000099  C0000031   1.000000000000e+00
    X0000099  OBJ        2.000000000000e+02
    X0000100  C0000044   1.000000000000e+00
    X0000100  OBJ        2.000000000000e+02
    X0000101  C0000057   1.000000000000e+00
    X0000101  OBJ        2.000000000000e+02
    X0000102  C0000070   1.000000000000e+00
    X0000102  OBJ        2.000000000000e+02
    X0000103  C0000083   1.000000000000e+00
    X0000103  OBJ        2.000000000000e+02
    X0000104  C0000096   1.000000000000e+00
    X0000104  OBJ        2.000000000000e+02
    X0000105  C0000109   1.000000000000e+00
    X0000105  OBJ        2.000000000000e+02
    X0000106  C0000122   1.000000000000e+00
    X0000106  OBJ        2.000000000000e+02
    X0000107  C0000135   1.000000000000e+00
    X0000107  OBJ        2.000000000000e+02
    X0000108  C0000148   1.000000000000e+00
    X0000108  OBJ        2.000000000000e+02
    X0000109  C0000161   1.000000000000e+00
    X0000109  OBJ        2.000000000000e+02
    X0000110  C0000174   1.000000000000e+00
    X0000110  OBJ        2.000000000000e+02
    X0000111  C0000187   1.000000000000e+00
    X0000111  OBJ        2.000000000000e+02
    X0000112  C0000200   1.000000000000e+00
    X0000112  OBJ        2.000000000000e+02
    X0000113  C0000213   1.000000000000e+00
    X0000113  OBJ        2.000000000000e+02
    X0000114  C0000226   1.000000000000e+00
    X0000114  OBJ        2.000000000000e+02
    X0000115  C0000239   1.000000000000e+00
    X0000115  OBJ        2.000000000000e+02
    X0000116  C0000252   1.000000000000e+00
    X0000116  OBJ        2.000000000000e+02
    X0000117  C0000265   1.000000000000e+00
    X0000117  OBJ        2.000000000000e+02
    X0000118  C0000278   1.000000000000e+00
    X0000118  OBJ        2.000000000000e+02
    X0000119  C0000291   1.000000000000e+00
    X0000119  OBJ        2.000000000000e+02
    X0000120  C0000304   1.000000000000e+00
    X0000120  OBJ        2.000000000000e+02
    X0000121  C0000005   1.000000000000e+00
    X0000121  C0000012   1.000000000000e+00
    X0000122  C0000018   1.000000000000e+00
    X0000122  C0000025   1.000000000000e+00
    X0000123  C0000031   1.000000000000e+00
    X0000123  C0000038   1.000000000000e+00
    X0000124  C0000044   1.000000000000e+00
    X0000124  C0000051   1.000000000000e+00
    X0000125  C0000057   1.000000000000e+00
    X0000125  C0000064   1.000000000000e+00
    X0000126  C0000070   1.000000000000e+00
    X0000126  C0000077   1.000000000000e+00
    X0000127  C0000083   1.000000000000e+00
    X0000127  C0000090   1.000000000000e+00
    X0000128  C0000096   1.000000000000e+00
    X0000128  C0000103   1.000000000000e+00
    X0000129  C0000109   1.000000000000e+00
    X0000129  C0000116   1.000000000000e+00
    X0000130  C0000122   1.000000000000e+00
    X0000130  C0000129   1.000000000000e+00
    X0000131  C0000135   1.000000000000e+00
    X0000131  C0000142   1.000000000000e+00
    X0000132  C0000148   1.000000000000e+00
    X0000132  C0000155   1.000000000000e+00
    X0000133  C0000161   1.000000000000e+00
    X0000133  C0000168   1.000000000000e+00
    X0000134  C0000174   1.000000000000e+00
    X0000134  C0000181   1.000000000000e+00
    X0000135  C0000187   1.000000000000e+00
    X0000135  C0000194   1.000000000000e+00
    X0000136  C0000200   1.000000000000e+00
    X0000136  C0000207   1.000000000000e+00
    X0000137  C0000213   1.000000000000e+00
    X0000137  C0000220   1.000000000000e+00
    X0000138  C0000226   1.000000000000e+00
    X0000138  C0000233   1.000000000000e+00
    X0000139  C0000239   1.000000000000e+00
    X0000139  C0000246   1.000000000000e+00
    X0000140  C0000252   1.000000000000e+00
    X0000140  C0000259   1.000000000000e+00
    X0000141  C0000265   1.000000000000e+00
    X0000141  C0000272   1.000000000000e+00
    X0000142  C0000278   1.000000000000e+00
    X0000142  C0000285   1.000000000000e+00
    X0000143  C0000291   1.000000000000e+00
    X0000143  C0000298   1.000000000000e+00
    X0000144  C0000304   1.000000000000e+00
    X0000144  C0000311   1.000000000000e+00
    X0000145  C0000002   1.000000000000e+00
    X0000145  C0000003   1.000000000000e+00
    X0000145  C0000012   1.000000000000e+00
    X0000145  C0000015  -1.000000000000e+00
    X0000145  C0000016  -1.000000000000e+00
    X0000145  OBJ        3.500000000000e+02
    X0000146  C0000013   1.000000000000e+00
    X0000146  C0000014   1.000000000000e+00
    X0000146  C0000015   1.000000000000e+00
    X0000146  C0000016   1.000000000000e+00
    X0000146  C0000025   1.000000000000e+00
    X0000146  C0000028  -1.000000000000e+00
    X0000146  C0000029  -1.000000000000e+00
    X0000146  OBJ        3.500000000000e+02
    X0000147  C0000026   1.000000000000e+00
    X0000147  C0000027   1.000000000000e+00
    X0000147  C0000028   1.000000000000e+00
    X0000147  C0000029   1.000000000000e+00
    X0000147  C0000038   1.000000000000e+00
    X0000147  C0000041  -1.000000000000e+00
    X0000147  C0000042  -1.000000000000e+00
    X0000147  OBJ        3.500000000000e+02
    X0000148  C0000039   1.000000000000e+00
    X0000148  C0000040   1.000000000000e+00
    X0000148  C0000041   1.000000000000e+00
    X0000148  C0000042   1.000000000000e+00
    X0000148  C0000051   1.000000000000e+00
    X0000148  C0000054  -1.000000000000e+00
    X0000148  C0000055  -1.000000000000e+00
    X0000148  OBJ        3.500000000000e+02
    X0000149  C0000052   1.000000000000e+00
    X0000149  C0000053   1.000000000000e+00
    X0000149  C0000054   1.000000000000e+00
    X0000149  C0000055   1.000000000000e+00
    X0000149  C0000064   1.000000000000e+00
    X0000149  C0000067  -1.000000000000e+00
    X0000149  C0000068  -1.000000000000e+00
    X0000149  OBJ        3.500000000000e+02
    X0000150  C0000065   1.000000000000e+00
    X0000150  C0000066   1.000000000000e+00
    X0000150  C0000067   1.000000000000e+00
    X0000150  C0000068   1.000000000000e+00
    X0000150  C0000077   1.000000000000e+00
    X0000150  C0000080  -1.000000000000e+00
    X0000150  C0000081  -1.000000000000e+00
    X0000150  OBJ        3.500000000000e+02
    X0000151  C0000078   1.000000000000e+00
    X0000151  C0000079   1.000000000000e+00
    X0000151  C0000080   1.000000000000e+00
    X0000151  C0000081   1.000000000000e+00
    X0000151  C0000090   1.000000000000e+00
    X0000151  C0000093  -1.000000000000e+00
    X0000151  C0000094  -1.000000000000e+00
    X0000151  OBJ        3.500000000000e+02
    X0000152  C0000091   1.000000000000e+00
    X0000152  C0000092   1.000000000000e+00
    X0000152  C0000093   1.000000000000e+00
    X0000152  C0000094   1.000000000000e+00
    X0000152  C0000103   1.000000000000e+00
    X0000152  C0000106  -1.000000000000e+00
    X0000152  C0000107  -1.000000000000e+00
    X0000152  OBJ        3.500000000000e+02
    X0000153  C0000104   1.000000000000e+00
    X0000153  C0000105   1.000000000000e+00
    X0000153  C0000106   1.000000000000e+00
    X0000153  C0000107   1.000000000000e+00
    X0000153  C0000116   1.000000000000e+00
    X0000153  C0000119  -1.000000000000e+00
    X0000153  C0000120  -1.000000000000e+00
    X0000153  OBJ        3.500000000000e+02
    X0000154  C0000117   1.000000000000e+00
    X0000154  C0000118   1.000000000000e+00
    X0000154  C0000119   1.000000000000e+00
    X0000154  C0000120   1.000000000000e+00
    X0000154  C0000129   1.000000000000e+00
    X0000154  C0000132  -1.000000000000e+00
    X0000154  C0000133  -1.000000000000e+00
    X0000154  OBJ        3.500000000000e+02
    X0000155  C0000130   1.000000000000e+00
    X0000155  C0000131   1.000000000000e+00
    X0000155  C0000132   1.000000000000e+00
    X0000155  C0000133   1.000000000000e+00
    X0000155  C0000142   1.000000000000e+00
    X0000155  C0000145  -1.000000000000e+00
    X0000155  C0000146  -1.000000000000e+00
    X0000155  OBJ        3.500000000000e+02
    X0000156  C0000143   1.000000000000e+00
    X0000156  C0000144   1.000000000000e+00
    X0000156  C0000145   1.000000000000e+00
    X0000156  C0000146   1.000000000000e+00
    X0000156  C0000155   1.000000000000e+00
    X0000156  C0000158  -1.000000000000e+00
    X0000156  C0000159  -1.000000000000e+00
    X0000156  OBJ        3.500000000000e+02
    X0000157  C0000156   1.000000000000e+00
    X0000157  C0000157   1.000000000000e+00
    X0000157  C0000158   1.000000000000e+00
    X0000157  C0000159   1.000000000000e+00
    X0000157  C0000168   1.000000000000e+00
    X0000157  C0000171  -1.000000000000e+00
    X0000157  C0000172  -1.000000000000e+00
    X0000157  OBJ        3.500000000000e+02
    X0000158  C0000169   1.000000000000e+00
    X0000158  C0000170   1.000000000000e+00
    X0000158  C0000171   1.000000000000e+00
    X0000158  C0000172   1.000000000000e+00
    X0000158  C0000181   1.000000000000e+00
    X0000158  C0000184  -1.000000000000e+00
    X0000158  C0000185  -1.000000000000e+00
    X0000158  OBJ        3.500000000000e+02
    X0000159  C0000182   1.000000000000e+00
    X0000159  C0000183   1.000000000000e+00
    X0000159  C0000184   1.000000000000e+00
    X0000159  C0000185   1.000000000000e+00
    X0000159  C0000194   1.000000000000e+00
    X0000159  C0000197  -1.000000000000e+00
    X0000159  C0000198  -1.000000000000e+00
    X0000159  OBJ        3.500000000000e+02
    X0000160  C0000195   1.000000000000e+00
    X0000160  C0000196   1.000000000000e+00
    X0000160  C0000197   1.000000000000e+00
    X0000160  C0000198   1.000000000000e+00
    X0000160  C0000207   1.000000000000e+00
    X0000160  C0000210  -1.000000000000e+00
    X0000160  C0000211  -1.000000000000e+00
    X0000160  OBJ        3.500000000000e+02
    X0000161  C0000208   1.000000000000e+00
    X0000161  C0000209   1.000000000000e+00
    X0000161  C0000210   1.000000000000e+00
    X0000161  C0000211   1.000000000000e+00
    X0000161  C0000220   1.000000000000e+00
    X0000161  C0000223  -1.000000000000e+00
    X0000161  C0000224  -1.000000000000e+00
    X0000161  OBJ        3.500000000000e+02
    X0000162  C0000221   1.000000000000e+00
    X0000162  C0000222   1.000000000000e+00
    X0000162  C0000223   1.000000000000e+00
    X0000162  C0000224   1.000000000000e+00
    X0000162  C0000233   1.000000000000e+00
    X0000162  C0000236  -1.000000000000e+00
    X0000162  C0000237  -1.000000000000e+00
    X0000162  OBJ        3.500000000000e+02
    X0000163  C0000234   1.000000000000e+00
    X0000163  C0000235   1.000000000000e+00
    X0000163  C0000236   1.000000000000e+00
    X0000163  C0000237   1.000000000000e+00
    X0000163  C0000246   1.000000000000e+00
    X0000163  C0000249  -1.000000000000e+00
    X0000163  C0000250  -1.000000000000e+00
    X0000163  OBJ        3.500000000000e+02
    X0000164  C0000247   1.000000000000e+00
    X0000164  C0000248   1.000000000000e+00
    X0000164  C0000249   1.000000000000e+00
    X0000164  C0000250   1.000000000000e+00
    X0000164  C0000259   1.000000000000e+00
    X0000164  C0000262  -1.000000000000e+00
    X0000164  C0000263  -1.000000000000e+00
    X0000164  OBJ        3.500000000000e+02
    X0000165  C0000260   1.000000000000e+00
    X0000165  C0000261   1.000000000000e+00
    X0000165  C0000262   1.000000000000e+00
    X0000165  C0000263   1.000000000000e+00
    X0000165  C0000272   1.000000000000e+00
    X0000165  C0000275  -1.000000000000e+00
    X0000165  C0000276  -1.000000000000e+00
    X0000165  OBJ        3.500000000000e+02
    X0000166  C0000273   1.000000000000e+00
    X0000166  C0000274   1.000000000000e+00
    X0000166  C0000275   1.000000000000e+00
    X0000166  C0000276   1.000000000000e+00
    X0000166  C0000285   1.000000000000e+00
    X0000166  C0000288  -1.000000000000e+00
    X0000166  C0000289  -1.000000000000e+00
    X0000166  OBJ        3.500000000000e+02
    X0000167  C0000286   1.000000000000e+00
    X0000167  C0000287   1.000000000000e+00
    X0000167  C0000288   1.000000000000e+00
    X0000167  C0000289   1.000000000000e+00
    X0000167  C0000298   1.000000000000e+00
    X0000167  C0000301  -1.000000000000e+00
    X0000167  C0000302  -1.000000000000e+00
    X0000167  OBJ        3.500000000000e+02
    X0000168  C0000299   1.000000000000e+00
    X0000168  C0000300   1.000000000000e+00
    X0000168  C0000301   1.000000000000e+00
    X0000168  C0000302   1.000000000000e+00
    X0000168  C0000311   1.000000000000e+00
    X0000168  OBJ        3.500000000000e+02
    X0000169  C0000006   1.000000000000e+00
    X0000169  C0000012   1.000000000000e+00
    X0000169  OBJ        1.000000000000e+04
    X0000170  C0000019   1.000000000000e+00
    X0000170  C0000025   1.000000000000e+00
    X0000170  OBJ        1.000000000000e+04
    X0000171  C0000032   1.000000000000e+00
    X0000171  C0000038   1.000000000000e+00
    X0000171  OBJ        1.000000000000e+04
    X0000172  C0000045   1.000000000000e+00
    X0000172  C0000051   1.000000000000e+00
    X0000172  OBJ        1.000000000000e+04
    X0000173  C0000058   1.000000000000e+00
    X0000173  C0000064   1.000000000000e+00
    X0000173  OBJ        1.000000000000e+04
    X0000174  C0000071   1.000000000000e+00
    X0000174  C0000077   1.000000000000e+00
    X0000174  OBJ        1.000000000000e+04
    X0000175  C0000084   1.000000000000e+00
    X0000175  C0000090   1.000000000000e+00
    X0000175  OBJ        1.000000000000e+04
    X0000176  C0000097   1.000000000000e+00
    X0000176  C0000103   1.000000000000e+00
    X0000176  OBJ        1.000000000000e+04
    X0000177  C0000110   1.000000000000e+00
    X0000177  C0000116   1.000000000000e+00
    X0000177  OBJ        1.000000000000e+04
    X0000178  C0000123   1.000000000000e+00
    X0000178  C0000129   1.000000000000e+00
    X0000178  OBJ        1.000000000000e+04
    X0000179  C0000136   1.000000000000e+00
    X0000179  C0000142   1.000000000000e+00
    X0000179  OBJ        1.000000000000e+04
    X0000180  C0000149   1.000000000000e+00
    X0000180  C0000155   1.000000000000e+00
    X0000180  OBJ        1.000000000000e+04
    X0000181  C0000162   1.000000000000e+00
    X0000181  C0000168   1.000000000000e+00
    X0000181  OBJ        1.000000000000e+04
    X0000182  C0000175   1.000000000000e+00
    X0000182  C0000181   1.000000000000e+00
    X0000182  OBJ        1.000000000000e+04
    X0000183  C0000188   1.000000000000e+00
    X0000183  C0000194   1.000000000000e+00
    X0000183  OBJ        1.000000000000e+04
    X0000184  C0000201   1.000000000000e+00
    X0000184  C0000207   1.000000000000e+00
    X0000184  OBJ        1.000000000000e+04
    X0000185  C0000214   1.000000000000e+00
    X0000185  C0000220   1.000000000000e+00
    X0000185  OBJ        1.000000000000e+04
    X0000186  C0000227   1.000000000000e+00
    X0000186  C0000233   1.000000000000e+00
    X0000186  OBJ        1.000000000000e+04
    X0000187  C0000240   1.000000000000e+00
    X0000187  C0000246   1.000000000000e+00
    X0000187  OBJ        1.000000000000e+04
    X0000188  C0000253   1.000000000000e+00
    X0000188  C0000259   1.000000000000e+00
    X0000188  OBJ        1.000000000000e+04
    X0000189  C0000266   1.000000000000e+00
    X0000189  C0000272   1.000000000000e+00
    X0000189  OBJ        1.000000000000e+04
    X0000190  C0000279   1.000000000000e+00
    X0000190  C0000285   1.000000000000e+00
    X0000190  OBJ        1.000000000000e+04
    X0000191  C0000292   1.000000000000e+00
    X0000191  C0000298   1.000000000000e+00
    X0000191  OBJ        1.000000000000e+04
    X0000192  C0000305   1.000000000000e+00
    X0000192  C0000311   1.000000000000e+00
    X0000192  OBJ        1.000000000000e+04
    X0000193  C0000004   1.000000000000e+00
    X0000193  OBJ        2.000000000000e+02
    X0000194  C0000017   1.000000000000e+00
    X0000194  OBJ        2.000000000000e+02
    X0000195  C0000030   1.000000000000e+00
    X0000195  OBJ        2.000000000000e+02
    X0000196  C0000043   1.000000000000e+00
    X0000196  OBJ        2.000000000000e+02
    X0000197  C0000056   1.000000000000e+00
    X0000197  OBJ        2.000000000000e+02
    X0000198  C0000069   1.000000000000e+00
    X0000198  OBJ        2.000000000000e+02
    X0000199  C0000082   1.000000000000e+00
    X0000199  OBJ        2.000000000000e+02
    X0000200  C0000095   1.000000000000e+00
    X0000200  OBJ        2.000000000000e+02
    X0000201  C0000108   1.000000000000e+00
    X0000201  OBJ        2.000000000000e+02
    X0000202  C0000121   1.000000000000e+00
    X0000202  OBJ        2.000000000000e+02
    X0000203  C0000134   1.000000000000e+00
    X0000203  OBJ        2.000000000000e+02
    X0000204  C0000147   1.000000000000e+00
    X0000204  OBJ        2.000000000000e+02
    X0000205  C0000160   1.000000000000e+00
    X0000205  OBJ        2.000000000000e+02
    X0000206  C0000173   1.000000000000e+00
    X0000206  OBJ        2.000000000000e+02
    X0000207  C0000186   1.000000000000e+00
    X0000207  OBJ        2.000000000000e+02
    X0000208  C0000199   1.000000000000e+00
    X0000208  OBJ        2.000000000000e+02
    X0000209  C0000212   1.000000000000e+00
    X0000209  OBJ        2.000000000000e+02
    X0000210  C0000225   1.000000000000e+00
    X0000210  OBJ        2.000000000000e+02
    X0000211  C0000238   1.000000000000e+00
    X0000211  OBJ        2.000000000000e+02
    X0000212  C0000251   1.000000000000e+00
    X0000212  OBJ        2.000000000000e+02
    X0000213  C0000264   1.000000000000e+00
    X0000213  OBJ        2.000000000000e+02
    X0000214  C0000277   1.000000000000e+00
    X0000214  OBJ        2.000000000000e+02
    X0000215  C0000290   1.000000000000e+00
    X0000215  OBJ        2.000000000000e+02
    X0000216  C0000303   1.000000000000e+00
    X0000216  OBJ        2.000000000000e+02
    X0000217  C0000004   1.000000000000e+00
    X0000217  C0000012   1.000000000000e+00
    X0000218  C0000017   1.000000000000e+00
    X0000218  C0000025   1.000000000000e+00
    X0000219  C0000030   1.000000000000e+00
    X0000219  C0000038   1.000000000000e+00
    X0000220  C0000043   1.000000000000e+00
    X0000220  C0000051   1.000000000000e+00
    X0000221  C0000056   1.000000000000e+00
    X0000221  C0000064   1.000000000000e+00
    X0000222  C0000069   1.000000000000e+00
    X0000222  C0000077   1.000000000000e+00
    X0000223  C0000082   1.000000000000e+00
    X0000223  C0000090   1.000000000000e+00
    X0000224  C0000095   1.000000000000e+00
    X0000224  C0000103   1.000000000000e+00
    X0000225  C0000108   1.000000000000e+00
    X0000225  C0000116   1.000000000000e+00
    X0000226  C0000121   1.000000000000e+00
    X0000226  C0000129   1.000000000000e+00
    X0000227  C0000134   1.000000000000e+00
    X0000227  C0000142   1.000000000000e+00
    X0000228  C0000147   1.000000000000e+00
    X0000228  C0000155   1.000000000000e+00
    X0000229  C0000160   1.000000000000e+00
    X0000229  C0000168   1.000000000000e+00
    X0000230  C0000173   1.000000000000e+00
    X0000230  C0000181   1.000000000000e+00
    X0000231  C0000186   1.000000000000e+00
    X0000231  C0000194   1.000000000000e+00
    X0000232  C0000199   1.000000000000e+00
    X0000232  C0000207   1.000000000000e+00
    X0000233  C0000212   1.000000000000e+00
    X0000233  C0000220   1.000000000000e+00
    X0000234  C0000225   1.000000000000e+00
    X0000234  C0000233   1.000000000000e+00
    X0000235  C0000238   1.000000000000e+00
    X0000235  C0000246   1.000000000000e+00
    X0000236  C0000251   1.000000000000e+00
    X0000236  C0000259   1.000000000000e+00
    X0000237  C0000264   1.000000000000e+00
    X0000237  C0000272   1.000000000000e+00
    X0000238  C0000277   1.000000000000e+00
    X0000238  C0000285   1.000000000000e+00
    X0000239  C0000290   1.000000000000e+00
    X0000239  C0000298   1.000000000000e+00
    X0000240  C0000303   1.000000000000e+00
    X0000240  C0000311   1.000000000000e+00
RHS
    RHS       C0000000   2.000000000000e+01
    RHS       C0000001   0.000000000000e+00
    RHS       C0000002   3.000000000000e+01
    RHS       C0000003   1.200000000000e+02
    RHS       C0000004   6.132000000000e+01
    RHS       C0000005   0.000000000000e+00
    RHS       C0000006   9.200000000000e+01
    RHS       C0000007   2.000000000000e+01
    RHS       C0000008   2.000000000000e+01
    RHS       C0000009   0.000000000000e+00
    RHS       C0000010   2.000000000000e+01
    RHS       C0000011   0.000000000000e+00
    RHS       C0000012   9.200000000000e+01
    RHS       C0000013   3.000000000000e+01
    RHS       C0000014   1.200000000000e+02
    RHS       C0000015   3.000000000000e+01
    RHS       C0000016  -3.000000000000e+01
    RHS       C0000017   6.434000000000e+01
    RHS       C0000018   0.000000000000e+00
    RHS       C0000019   8.700000000000e+01
    RHS       C0000020   2.000000000000e+01
    RHS       C0000021   2.000000000000e+01
    RHS       C0000022   0.000000000000e+00
    RHS       C0000023   2.000000000000e+01
    RHS       C0000024   0.000000000000e+00
    RHS       C0000025   8.700000000000e+01
    RHS       C0000026   3.000000000000e+01
    RHS       C0000027   1.200000000000e+02
    RHS       C0000028   3.000000000000e+01
    RHS       C0000029  -3.000000000000e+01
    RHS       C0000030   6.336000000000e+01
    RHS       C0000031   0.000000000000e+00
    RHS       C0000032   8.300000000000e+01
    RHS       C0000033   2.000000000000e+01
    RHS       C0000034   2.000000000000e+01
    RHS       C0000035   0.000000000000e+00
    RHS       C0000036   2.000000000000e+01
    RHS       C0000037   0.000000000000e+00
    RHS       C0000038   8.300000000000e+01
    RHS       C0000039   3.000000000000e+01
    RHS       C0000040   1.200000000000e+02
    RHS       C0000041   3.000000000000e+01
    RHS       C0000042  -3.000000000000e+01
    RHS       C0000043   6.123000000000e+01
    RHS       C0000044   0.000000000000e+00
    RHS       C0000045   8.100000000000e+01
    RHS       C0000046   2.000000000000e+01
    RHS       C0000047   2.000000000000e+01
    RHS       C0000048   0.000000000000e+00
    RHS       C0000049   2.000000000000e+01
    RHS       C0000050   0.000000000000e+00
    RHS       C0000051   8.100000000000e+01
    RHS       C0000052   3.000000000000e+01
    RHS       C0000053   1.200000000000e+02
    RHS       C0000054   3.000000000000e+01
    RHS       C0000055  -3.000000000000e+01
    RHS       C0000056   5.800000000000e+01
    RHS       C0000057   0.000000000000e+00
    RHS       C0000058   8.200000000000e+01
    RHS       C0000059   2.000000000000e+01
    RHS       C0000060   2.000000000000e+01
    RHS       C0000061   0.000000000000e+00
    RHS       C0000062   2.000000000000e+01
    RHS       C0000063   0.000000000000e+00
    RHS       C0000064   8.200000000000e+01
    RHS       C0000065   3.000000000000e+01
    RHS       C0000066   1.200000000000e+02
    RHS       C0000067   3.000000000000e+01
    RHS       C0000068  -3.000000000000e+01
    RHS       C0000069   5.530000000000e+01
    RHS       C0000070   0.000000000000e+00
    RHS       C0000071   8.900000000000e+01
    RHS       C0000072   2.000000000000e+01
    RHS       C0000073   2.000000000000e+01
    RHS       C0000074   0.000000000000e+00
    RHS       C0000075   2.000000000000e+01
    RHS       C0000076   0.000000000000e+00
    RHS       C0000077   8.900000000000e+01
    RHS       C0000078   3.000000000000e+01
    RHS       C0000079   1.200000000000e+02
    RHS       C0000080   3.000000000000e+01
    RHS       C0000081  -3.000000000000e+01
    RHS       C0000082   5.535000000000e+01
    RHS       C0000083   0.000000000000e+00
    RHS       C0000084   1.030000000000e+02
    RHS       C0000085   2.000000000000e+01
    RHS       C0000086   2.000000000000e+01
    RHS       C0000087   0.000000000000e+00
    RHS       C0000088   2.000000000000e+01
    RHS       C0000089   0.000000000000e+00
    RHS       C0000090   1.030000000000e+02
    RHS       C0000091   3.000000000000e+01
    RHS       C0000092   1.200000000000e+02
    RHS       C0000093   3.000000000000e+01
    RHS       C0000094  -3.000000000000e+01
    RHS       C0000095   5.410000000000e+01
    RHS       C0000096   1.725000000000e+01
    RHS       C0000097   1.220000000000e+02
    RHS       C0000098   2.000000000000e+01
    RHS       C0000099   2.000000000000e+01
    RHS       C0000100   0.000000000000e+00
    RHS       C0000101   2.000000000000e+01
    RHS       C0000102   0.000000000000e+00
    RHS       C0000103   1.220000000000e+02
    RHS       C0000104   3.000000000000e+01
    RHS       C0000105   1.200000000000e+02
    RHS       C0000106   3.000000000000e+01
    RHS       C0000107  -3.000000000000e+01
    RHS       C0000108   5.034000000000e+01
    RHS       C0000109   4.948000000000e+01
    RHS       C0000110   1.390000000000e+02
    RHS       C0000111   2.000000000000e+01
    RHS       C0000112   2.000000000000e+01
    RHS       C0000113   0.000000000000e+00
    RHS       C0000114   2.000000000000e+01
    RHS       C0000115   0.000000000000e+00
    RHS       C0000116   1.390000000000e+02
    RHS       C0000117   3.000000000000e+01
    RHS       C0000118   1.200000000000e+02
    RHS       C0000119   3.000000000000e+01
    RHS       C0000120  -3.000000000000e+01
    RHS       C0000121   4.669000000000e+01
    RHS       C0000122   8.615000000000e+01
    RHS       C0000123   1.450000000000e+02
    RHS       C0000124   2.000000000000e+01
    RHS       C0000125   2.000000000000e+01
    RHS       C0000126   0.000000000000e+00
    RHS       C0000127   2.000000000000e+01
    RHS       C0000128   0.000000000000e+00
    RHS       C0000129   1.450000000000e+02
    RHS       C0000130   3.000000000000e+01
    RHS       C0000131   1.200000000000e+02
    RHS       C0000132   3.000000000000e+01
    RHS       C0000133  -3.000000000000e+01
    RHS       C0000134   4.489000000000e+01
    RHS       C0000135   1.191600000000e+02
    RHS       C0000136   1.410000000000e+02
    RHS       C0000137   2.000000000000e+01
    RHS       C0000138   2.000000000000e+01
    RHS       C0000139   0.000000000000e+00
    RHS       C0000140   2.000000000000e+01
    RHS       C0000141   0.000000000000e+00
    RHS       C0000142   1.410000000000e+02
    RHS       C0000143   3.000000000000e+01
    RHS       C0000144   1.200000000000e+02
    RHS       C0000145   3.000000000000e+01
    RHS       C0000146  -3.000000000000e+01
    RHS       C0000147   4.374000000000e+01
    RHS       C0000148   1.419100000000e+02
    RHS       C0000149   1.340000000000e+02
    RHS       C0000150   2.000000000000e+01
    RHS       C0000151   2.000000000000e+01
    RHS       C0000152   0.000000000000e+00
    RHS       C0000153   2.000000000000e+01
    RHS       C0000154   0.000000000000e+00
    RHS       C0000155   1.340000000000e+02
    RHS       C0000156   3.000000000000e+01
    RHS       C0000157   1.200000000000e+02
    RHS       C0000158   3.000000000000e+01
    RHS       C0000159  -3.000000000000e+01
    RHS       C0000160   4.152000000000e+01
    RHS       C0000161   1.500000000000e+02
    RHS       C0000162   1.280000000000e+02
    RHS       C0000163   2.000000000000e+01
    RHS       C0000164   2.000000000000e+01
    RHS       C0000165   0.000000000000e+00
    RHS       C0000166   2.000000000000e+01
    RHS       C0000167   0.000000000000e+00
    RHS       C0000168   1.280000000000e+02
    RHS       C0000169   3.000000000000e+01
    RHS       C0000170   1.200000000000e+02
    RHS       C0000171   3.000000000000e+01
    RHS       C0000172  -3.000000000000e+01
    RHS       C0000173   3.909000000000e+01
    RHS       C0000174   1.419100000000e+02
    RHS       C0000175   1.250000000000e+02
    RHS       C0000176   2.000000000000e+01
    RHS       C0000177   2.000000000000e+01
    RHS       C0000178   0.000000000000e+00
    RHS       C0000179   2.000000000000e+01
    RHS       C0000180   0.000000000000e+00
    RHS       C0000181   1.250000000000e+02
    RHS       C0000182   3.000000000000e+01
    RHS       C0000183   1.200000000000e+02
    RHS       C0000184   3.000000000000e+01
    RHS       C0000185  -3.000000000000e+01
    RHS       C0000186   3.930000000000e+01
    RHS       C0000187   1.191600000000e+02
    RHS       C0000188   1.270000000000e+02
    RHS       C0000189   2.000000000000e+01
    RHS       C0000190   2.000000000000e+01
    RHS       C0000191   0.000000000000e+00
    RHS       C0000192   2.000000000000e+01
    RHS       C0000193   0.000000000000e+00
    RHS       C0000194   1.270000000000e+02
    RHS       C0000195   3.000000000000e+01
    RHS       C0000196   1.200000000000e+02
    RHS       C0000197   3.000000000000e+01
    RHS       C0000198  -3.000000000000e+01
    RHS       C0000199   4.207000000000e+01
    RHS       C0000200   8.615000000000e+01
    RHS       C0000201   1.330000000000e+02
    RHS       C0000202   2.000000000000e+01
    RHS       C0000203   2.000000000000e+01
    RHS       C0000204   0.000000000000e+00
    RHS       C0000205   2.000000000000e+01
    RHS       C0000206   0.000000000000e+00
    RHS       C0000207   1.330000000000e+02
    RHS       C0000208   3.000000000000e+01
    RHS       C0000209   1.200000000000e+02
    RHS       C0000210   3.000000000000e+01
    RHS       C0000211  -3.000000000000e+01
    RHS       C0000212   4.286000000000e+01
    RHS       C0000213   4.948000000000e+01
    RHS       C0000214   1.430000000000e+02
    RHS       C0000215   2.000000000000e+01
    RHS       C0000216   2.000000000000e+01
    RHS       C0000217   0.000000000000e+00
    RHS       C0000218   2.000000000000e+01
    RHS       C0000219   0.000000000000e+00
    RHS       C0000220   1.430000000000e+02
    RHS       C0000221   3.000000000000e+01
    RHS       C0000222   1.200000000000e+02
    RHS       C0000223   3.000000000000e+01
    RHS       C0000224  -3.000000000000e+01
    RHS       C0000225   4.130000000000e+01
    RHS       C0000226   1.725000000000e+01
    RHS       C0000227   1.540000000000e+02
    RHS       C0000228   2.000000000000e+01
    RHS       C0000229   2.000000000000e+01
    RHS       C0000230   0.000000000000e+00
    RHS       C0000231   2.000000000000e+01
    RHS       C0000232   0.000000000000e+00
    RHS       C0000233   1.540000000000e+02
    RHS       C0000234   3.000000000000e+01
    RHS       C0000235   1.200000000000e+02
    RHS       C0000236   3.000000000000e+01
    RHS       C0000237  -3.000000000000e+01
    RHS       C0000238   4.214000000000e+01
    RHS       C0000239   0.000000000000e+00
    RHS       C0000240   1.600000000000e+02
    RHS       C0000241   2.000000000000e+01
    RHS       C0000242   2.000000000000e+01
    RHS       C0000243   0.000000000000e+00
    RHS       C0000244   2.000000000000e+01
    RHS       C0000245   0.000000000000e+00
    RHS       C0000246   1.600000000000e+02
    RHS       C0000247   3.000000000000e+01
    RHS       C0000248   1.200000000000e+02
    RHS       C0000249   3.000000000000e+01
    RHS       C0000250  -3.000000000000e+01
    RHS       C0000251   4.341000000000e+01
    RHS       C0000252   0.000000000000e+00
    RHS       C0000253   1.620000000000e+02
    RHS       C0000254   2.000000000000e+01
    RHS       C0000255   2.000000000000e+01
    RHS       C0000256   0.000000000000e+00
    RHS       C0000257   2.000000000000e+01
    RHS       C0000258   0.000000000000e+00
    RHS       C0000259   1.620000000000e+02
    RHS       C0000260   3.000000000000e+01
    RHS       C0000261   1.200000000000e+02
    RHS       C0000262   3.000000000000e+01
    RHS       C0000263  -3.000000000000e+01
    RHS       C0000264   4.639000000000e+01
    RHS       C0000265   0.000000000000e+00
    RHS       C0000266   1.510000000000e+02
    RHS       C0000267   2.000000000000e+01
    RHS       C0000268   2.000000000000e+01
    RHS       C0000269   0.000000000000e+00
    RHS       C0000270   2.000000000000e+01
    RHS       C0000271   0.000000000000e+00
    RHS       C0000272   1.510000000000e+02
    RHS       C0000273   3.000000000000e+01
    RHS       C0000274   1.200000000000e+02
    RHS       C0000275   3.000000000000e+01
    RHS       C0000276  -3.000000000000e+01
    RHS       C0000277   5.211000000000e+01
    RHS       C0000278   0.000000000000e+00
    RHS       C0000279   1.320000000000e+02
    RHS       C0000280   2.000000000000e+01
    RHS       C0000281   2.000000000000e+01
    RHS       C0000282   0.000000000000e+00
    RHS       C0000283   2.000000000000e+01
    RHS       C0000284   0.000000000000e+00
    RHS       C0000285   1.320000000000e+02
    RHS       C0000286   3.000000000000e+01
    RHS       C0000287   1.200000000000e+02
    RHS       C0000288   3.000000000000e+01
    RHS       C0000289  -3.000000000000e+01
    RHS       C0000290   5.415000000000e+01
    RHS       C0000291   0.000000000000e+00
    RHS       C0000292   1.120000000000e+02
    RHS       C0000293   2.000000000000e+01
    RHS       C0000294   2.000000000000e+01
    RHS       C0000295   0.000000000000e+00
    RHS       C0000296   2.000000000000e+01
    RHS       C0000297   0.000000000000e+00
    RHS       C0000298   1.120000000000e+02
    RHS       C0000299   3.000000000000e+01
    RHS       C0000300   1.200000000000e+02
    RHS       C0000301   3.000000000000e+01
    RHS       C0000302  -3.000000000000e+01
    RHS       C0000303   5.494000000000e+01
    RHS       C0000304   0.000000000000e+00
    RHS       C0000305   9.900000000000e+01
    RHS       C0000306   2.000000000000e+01
    RHS       C0000307   2.000000000000e+01
    RHS       C0000308   0.000000000000e+00
    RHS       C0000309   2.000000000000e+01
    RHS       C0000310   0.000000000000e+00
    RHS       C0000311   9.900000000000e+01
BOUNDS
 BV BND       X0000024
 BV BND       X0000025
 BV BND       X0000026
 BV BND       X0000027
 BV BND       X0000028
 BV BND       X0000029
 BV BND       X0000030
 BV BND       X0000031
 BV BND       X0000032
 BV BND       X0000033
 BV BND       X0000034
 BV BND       X0000035
 BV BND       X0000036
 BV BND       X0000037
 BV BND       X0000038
 BV BND       X0000039
 BV BND       X0000040
 BV BND       X0000041
 BV BND       X0000042
 BV BND       X0000043
 BV BND       X0000044
 BV BND       X0000045
 BV BND       X0000046
 BV BND       X0000047
 LO BND       X0000072   4.000000000000e+00
 UP BND       X0000072   3.600000000000e+01
 LO BND       X0000073   4.000000000000e+00
 UP BND       X0000073   3.600000000000e+01
 LO BND       X0000074   4.000000000000e+00
 UP BND       X0000074   3.600000000000e+01
 LO BND       X0000075   4.000000000000e+00
 UP BND       X0000075   3.600000000000e+01
 LO BND       X0000076   4.000000000000e+00
 UP BND       X0000076   3.600000000000e+01
 LO BND       X0000077   4.000000000000e+00
 UP BND       X0000077   3.600000000000e+01
 LO BND       X0000078   4.000000000000e+00
 UP BND       X0000078   3.600000000000e+01
 LO BND       X0000079   4.000000000000e+00
 UP BND       X0000079   3.600000000000e+01
 LO BND       X0000080   4.000000000000e+00
 UP BND       X0000080   3.600000000000e+01
 LO BND       X0000081   4.000000000000e+00
 UP BND       X0000081   3.600000000000e+01
 LO BND       X0000082   4.000000000000e+00
 UP BND       X0000082   3.600000000000e+01
 LO BND       X0000083   4.000000000000e+00
 UP BND       X0000083   3.600000000000e+01
 LO BND       X0000084   4.000000000000e+00
 UP BND       X0000084   3.600000000000e+01
 LO BND       X0000085   4.000000000000e+00
 UP BND       X0000085   3.600000000000e+01
 LO BND       X0000086   4.000000000000e+00
 UP BND       X0000086   3.600000000000e+01
 LO BND       X0000087   4.000000000000e+00
 UP BND       X0000087   3.600000000000e+01
 LO BND       X0000088   4.000000000000e+00
 UP BND       X0000088   3.600000000000e+01
 LO BND       X0000089   4.000000000000e+00
 UP BND       X0000089   3.600000000000e+01
 LO BND       X0000090   4.000000000000e+00
 UP BND       X0000090   3.600000000000e+01
 LO BND       X0000091   4.000000000000e+00
 UP BND       X0000091   3.600000000000e+01
 LO BND       X0000092   4.000000000000e+00
 UP BND       X0000092   3.600000000000e+01
 LO BND       X0000093   4.000000000000e+00
 UP BND       X0000093   3.600000000000e+01
 LO BND       X0000094   4.000000000000e+00
 UP BND       X0000094   3.600000000000e+01
 LO BND       X0000095   4.000000000000e+00
 UP BND       X0000095   3.600000000000e+01
 LO BND       X0000096   4.000000000000e+00
 UP BND       X0000096   3.600000000000e+01
ENDATA
