*SENSE:Minimize
NAME          MODEL
ROWS
 N  OBJ
 L  C0000000
 L  C0000001
 L  C0000002
 L  C0000003
 L  C0000004
 L  C0000005
 L  C0000006
 L  C0000007
 E  C0000008
 G  C0000009
 G  C0000010
 G  C0000011
 G  C0000012
 G  C0000013
 G  C0000014
 G  C0000015
 G  C0000016
 G  C0000017
 G  C0000018
 G  C0000019
 G  C0000020
 G  C0000021
 G  C0000022
 G  C0000023
 G  C0000024
 G  C0000025
 G  C0000026
 G  C0000027
 G  C0000028
 G  C0000029
 G  C0000030
 G  C0000031
 G  C0000032
 G  C0000033
 G  C0000034
 G  C0000035
 G  C0000036
 G  C0000037
 G  C0000038
 G  C0000039
 G  C0000040
 G  C0000041
 G  C0000042
 G  C0000043
 G  C0000044
 G  C0000045
 G  C0000046
 G  C0000047
 G  C0000048
 G  C0000049
 G  C0000050
 G  C0000051
 G  C0000052
 G  C0000053
 G  C0000054
 G  C0000055
 G  C0000056
 G  C0000057
 G  C0000058
 G  C0000059
 G  C0000060
 G  C0000061
 G  C0000062
 G  C0000063
 G  C0000064
 G  C0000065
 G  C0000066
 G  C0000067
 G  C0000068
 G  C0000069
 G  C0000070
 G  C0000071
 G  C0000072
 G  C0000073
 G  C0000074
 G  C0000075
 G  C0000076
 G  C0000077
 G  C0000078
 G  C0000079
 G  C0000080
 G  C0000081
 G  C0000082
 G  C0000083
 G  C0000084
 G  C0000085
 G  C0000086
 G  C0000087
 G  C0000088
 G  C0000089
 G  C0000090
 G  C0000091
 G  C0000092
 G  C0000093
 G  C0000094
 G  C0000095
 G  C0000096
 G  C0000097
 G  C0000098
 G  C0000099
 G  C0000100
 G  C0000101
 G  C0000102
 G  C0000103
 G  C0000104
COLUMNS
    X0000000  C0000009   1.000000000000e+00
    X0000000  C0000010   1.000000000000e+00
    X0000001  C0000011   1.000000000000e+00
    X0000001  C0000012   1.000000000000e+00
    X0000002  C0000013   1.000000000000e+00
    X0000002  C0000014   1.000000000000e+00
    X0000003  C0000015   1.000000000000e+00
    X0000003  C0000016   1.000000000000e+00
    X0000004  C0000017   1.000000000000e+00
    X0000004  C0000018   1.000000000000e+00
    X0000005  C0000019   1.000000000000e+00
    X0000005  C0000020   1.000000000000e+00
    X0000006  C0000021   1.000000000000e+00
    X0000006  C0000022   1.000000000000e+00
    X0000007  C0000023   1.000000000000e+00
    X0000007  C0000024   1.000000000000e+00
    X0000008  C0000025   1.000000000000e+00
    X0000008  C0000026   1.000000000000e+00
    X0000009  C0000027   1.000000000000e+00
    X0000009  C0000028   1.000000000000e+00
    X0000010  C0000029   1.000000000000e+00
    X0000010  C0000030   1.000000000000e+00
    X0000011  C0000031   1.000000000000e+00
    X0000011  C0000032   1.000000000000e+00
    X0000012  C0000033   1.000000000000e+00
    X0000012  C0000034   1.000000000000e+00
    X0000013  C0000035   1.000000000000e+00
    X0000013  C0000036   1.000000000000e+00
    X0000014  C0000037   1.000000000000e+00
    X0000014  C0000038   1.000000000000e+00
    X0000015  C0000039   1.000000000000e+00
    X0000015  C0000040   1.000000000000e+00
    X0000016  C0000041   1.000000000000e+00
    X0000016  C0000042   1.000000000000e+00
    X0000017  C0000043   1.000000000000e+00
    X0000017  C0000044   1.000000000000e+00
    X0000018  C0000045   1.000000000000e+00
    X0000018  C0000046   1.000000000000e+00
    X0000019  C0000047   1.000000000000e+00
    X0000019  C0000048   1.000000000000e+00
    X0000020  C0000049   1.000000000000e+00
    X0000020  C0000050   1.000000000000e+00
    X0000021  C0000051   1.000000000000e+00
    X0000021  C0000052   1.000000000000e+00
    X0000022  C0000053   1.000000000000e+00
    X0000022  C0000054   1.000000000000e+00
    X0000023  C0000055   1.000000000000e+00
    X0000023  C0000056   1.000000000000e+00
    X0000024  C0000057   1.000000000000e+00
    X0000024  C0000058   1.000000000000e+00
    X0000025  C0000059   1.000000000000e+00
    X0000025  C0000060   1.000000000000e+00
    X0000026  C0000061   1.000000000000e+00
    X0000026  C0000062   1.000000000000e+00
    X0000027  C0000063   1.000000000000e+00
    X0000027  C0000064   1.000000000000e+00
    X0000028  C0000065   1.000000000000e+00
    X0000028  C0000066   1.000000000000e+00
    X0000029  C0000067   1.000000000000e+00
    X0000029  C0000068   1.000000000000e+00
    X0000030  C0000069   1.000000000000e+00
    X0000030  C0000070   1.000000000000e+00
    X0000031  C0000071   1.000000000000e+00
    X0000031  C0000072   1.000000000000e+00
    X0000032  C0000073   1.000000000000e+00
    X0000032  C0000074   1.000000000000e+00
    X0000033  C0000075   1.000000000000e+00
    X0000033  C0000076   1.000000000000e+00
    X0000034  C0000077   1.000000000000e+00
    X0000034  C0000078   1.000000000000e+00
    X0000035  C0000079   1.000000000000e+00
    X0000035  C0000080   1.000000000000e+00
    X0000036  C0000081   1.000000000000e+00
    X0000036  C0000082   1.000000000000e+00
    X0000037  C0000083   1.000000000000e+00
    X0000037  C0000084   1.000000000000e+00
    X0000038  C0000085   1.000000000000e+00
    X0000038  C0000086   1.000000000000e+00
    X0000039  C0000087   1.000000000000e+00
    X0000039  C0000088   1.000000000000e+00
    X0000040  C0000089   1.000000000000e+00
    X0000040  C0000090   1.000000000000e+00
    X0000041  C0000091   1.000000000000e+00
    X0000041  C0000092   1.000000000000e+00
    X0000042  C0000093   1.000000000000e+00
    X0000042  C0000094   1.000000000000e+00
    X0000043  C0000095   1.000000000000e+00
    X0000043  C0000096   1.000000000000e+00
    X0000044  C0000097   1.000000000000e+00
    X0000044  C0000098   1.000000000000e+00
    X0000045  C0000099   1.000000000000e+00
    X0000045  C0000100   1.000000000000e+00
    X0000046  C0000101   1.000000000000e+00
    X0000046  C0000102   1.000000000000e+00
    X0000047  C0000103   1.000000000000e+00
    X0000047  C0000104   1.000000000000e+00
    X0000048  C0000000   2.877106452939e-03
    X0000048  C0000001  -2.877106452939e-03
    X0000048  C0000002   1.125726864646e-02
    X0000048  C0000003  -1.125726864646e-02
    X0000048  C0000004   4.842739347257e-04
    X0000048  C0000005  -4.842739347257e-04
    X0000048  C0000006   1.495938094003e-03
    X0000048  C0000007  -1.495938094003e-03
    X0000048  C0000008   1.000000000000e+00
    X0000048  C0000009  -3.333333333333e-01
    X0000048  C0000010   3.333333333333e-01
    X0000049  C0000000   2.740101383751e-03
    X0000049  C0000001  -2.740101383751e-03
    X0000049  C0000004   3.643657729719e-03
    X0000049  C0000005  -3.643657729719e-03
    X0000049  C0000006   3.722027103654e-03
    X0000049  C0000007  -3.722027103654e-03
    X0000049  C0000008   1.000000000000e+00
    X0000049  C0000011  -1.000000000000e-01
    X0000049  C0000012   1.000000000000e-01
    X0000050  C0000000   2.740101383751e-03
    X0000050  C0000001  -2.740101383751e-03
    X0000050  C0000002   1.512511542811e-03
    X0000050  C0000003  -1.512511542811e-03
    X0000050  C0000004   7.553942625784e-04
    X0000050  C0000005  -7.553942625784e-04
    X0000050  C0000006   2.991562212123e-03
    X0000050  C0000007  -2.991562212123e-03
    X0000050  C0000008   1.000000000000e+00
    X0000050  C0000013  -8.333333333333e-02
    X0000050  C0000014   8.333333333333e-02
    X0000051  C0000000   2.740101383751e-03
    X0000051  C0000001  -2.740101383751e-03
    X0000051  C0000002   1.777979769602e-03
    X0000051  C0000003  -1.777979769602e-03
    X0000051  C0000004   4.640300202439e-03
    X0000051  C0000005  -4.640300202439e-03
    X0000051  C0000006   2.232525515250e-03
    X0000051  C0000007  -2.232525515250e-03
    X0000051  C0000008   1.000000000000e+00
    X0000051  C0000015  -5.000000000000e-02
    X0000051  C0000016   5.000000000000e-02
    X0000052  C0000000   2.877106452939e-03
    X0000052  C0000001  -2.877106452939e-03
    X0000052  C0000002   1.175513534379e-02
    X0000052  C0000003  -1.175513534379e-02
    X0000052  C0000004   3.241988841159e-04
    X0000052  C0000005  -3.241988841159e-04
    X0000052  C0000006   8.273264514006e-05
    X0000052  C0000007  -8.273264514006e-05
    X0000052  C0000008   1.000000000000e+00
    X0000052  C0000017  -3.333333333333e-01
    X0000052  C0000018   3.333333333333e-01
    X0000053  C0000000   2.740101383751e-03
    X0000053  C0000001  -2.740101383751e-03
    X0000053  C0000002   8.450687987457e-03
    X0000053  C0000003  -8.450687987457e-03
    X0000053  C0000004   1.304251222041e-03
    X0000053  C0000005  -1.304251222041e-03
    X0000053  C0000006   8.741088579504e-04
    X0000053  C0000007  -8.741088579504e-04
    X0000053  C0000008   1.000000000000e+00
    X0000053  C0000019  -2.500000000000e-01
    X0000053  C0000020   2.500000000000e-01
    X0000054  C0000000   2.877106452939e-03
    X0000054  C0000001  -2.877106452939e-03
    X0000054  C0000002   9.750015902811e-04
    X0000054  C0000003  -9.750015902811e-04
    X0000054  C0000004   3.078161260060e-03
    X0000054  C0000005  -3.078161260060e-03
    X0000054  C0000006   4.230511045986e-03
    X0000054  C0000007  -4.230511045986e-03
    X0000054  C0000008   1.000000000000e+00
    X0000054  C0000021  -6.666666666667e-02
    X0000054  C0000022   6.666666666667e-02
    X0000055  C0000000   2.740101383751e-03
    X0000055  C0000001  -2.740101383751e-03
    X0000055  C0000002   1.097400140713e-02
    X0000055  C0000003  -1.097400140713e-02
    X0000055  C0000004   2.466449414901e-03
    X0000055  C0000005  -2.466449414901e-03
    X0000055  C0000006   1.436753640079e-03
    X0000055  C0000007  -1.436753640079e-03
    X0000055  C0000008   1.000000000000e+00
    X0000055  C0000023  -5.000000000000e-01
    X0000055  C0000024   5.000000000000e-01
    X0000056  C0000000   2.877106452939e-03
    X0000056  C0000001  -2.877106452939e-03
    X0000056  C0000002   5.003241746289e-03
    X0000056  C0000003  -5.003241746289e-03
    X0000056  C0000004   3.002073766849e-03
    X0000056  C0000005  -3.002073766849e-03
    X0000056  C0000006   4.238360443058e-03
    X0000056  C0000007  -4.238360443058e-03
    X0000056  C0000008   1.000000000000e+00
    X0000056  C0000025  -5.000000000000e-01
    X0000056  C0000026   5.000000000000e-01
    X0000057  C0000000   2.740101383751e-03
    X0000057  C0000001  -2.740101383751e-03
    X0000057  C0000002   1.021016082925e-03
    X0000057  C0000003  -1.021016082925e-03
    X0000057  C0000004   2.595516713573e-03
    X0000057  C0000005  -2.595516713573e-03
    X0000057  C0000006   3.095645217300e-03
    X0000057  C0000007  -3.095645217300e-03
    X0000057  C0000008   1.000000000000e+00
    X0000057  C0000027  -5.000000000000e-02
    X0000057  C0000028   5.000000000000e-02
    X0000058  C0000000   2.740101383751e-03
    X0000058  C0000001  -2.740101383751e-03
    X0000058  C0000002   2.373821940499e-02
    X0000058  C0000003  -2.373821940499e-02
    X0000058  C0000004   4.145064928653e-04
    X0000058  C0000005  -4.145064928653e-04
    X0000058  C0000008   1.000000000000e+00
    X0000058  C0000029  -1.000000000000e+00
    X0000058  C0000030   1.000000000000e+00
    X0000059  C0000000   2.603096314564e-03
    X0000059  C0000001  -2.603096314564e-03
    X0000059  C0000002   5.721067831531e-03
    X0000059  C0000003  -5.721067831531e-03
    X0000059  C0000004   3.327902039204e-03
    X0000059  C0000005  -3.327902039204e-03
    X0000059  C0000006   7.072306761973e-04
    X0000059  C0000007  -7.072306761973e-04
    X0000059  C0000008   1.000000000000e+00
    X0000059  C0000031  -2.000000000000e-01
    X0000059  C0000032   2.000000000000e-01
    X0000060  C0000000   2.603096314564e-03
    X0000060  C0000001  -2.603096314564e-03
    X0000060  C0000002   3.569915583126e-05
    X0000060  C0000003  -3.569915583126e-05
    X0000060  C0000004   4.670616698761e-03
    X0000060  C0000005  -4.670616698761e-03
    X0000060  C0000006   2.480409474787e-03
    X0000060  C0000007  -2.480409474787e-03
    X0000060  C0000008   1.000000000000e+00
    X0000060  C0000033  -5.555555555556e-02
    X0000060  C0000034   5.555555555556e-02
    X0000061  C0000000   2.603096314564e-03
    X0000061  C0000001  -2.603096314564e-03
    X0000061  C0000002   3.132019422363e-04
    X0000061  C0000003  -3.132019422363e-04
    X0000061  C0000004   2.246235125660e-03
    X0000061  C0000005  -2.246235125660e-03
    X0000061  C0000006   2.512435014842e-03
    X0000061  C0000007  -2.512435014842e-03
    X0000061  C0000008   1.000000000000e+00
    X0000061  C0000035  -4.545454545455e-02
    X0000061  C0000036   4.545454545455e-02
    X0000062  C0000000   2.740101383751e-03
    X0000062  C0000001  -2.740101383751e-03
    X0000062  C0000002   1.032312388042e-02
    X0000062  C0000003  -1.032312388042e-02
    X0000062  C0000004   4.939613884363e-03
    X0000062  C0000005  -4.939613884363e-03
    X0000062  C0000006   1.294836541016e-03
    X0000062  C0000007  -1.294836541016e-03
    X0000062  C0000008   1.000000000000e+00
    X0000062  C0000037  -2.500000000000e-01
    X0000062  C0000038   2.500000000000e-01
    X0000063  C0000000   2.740101383751e-03
    X0000063  C0000001  -2.740101383751e-03
    X0000063  C0000002   1.499627484871e-02
    X0000063  C0000003  -1.499627484871e-02
    X0000063  C0000004   3.140621142547e-03
    X0000063  C0000005  -3.140621142547e-03
    X0000063  C0000008   1.000000000000e+00
    X0000063  C0000039  -1.000000000000e+00
    X0000063  C0000040   1.000000000000e+00
    X0000064  C0000000   2.603096314564e-03
    X0000064  C0000001  -2.603096314564e-03
    X0000064  C0000002   7.836217531845e-03
    X0000064  C0000003  -7.836217531845e-03
    X0000064  C0000004   1.030069619316e-03
    X0000064  C0000005  -1.030069619316e-03
    X0000064  C0000008   1.000000000000e+00
    X0000064  C0000041  -2.500000000000e-01
    X0000064  C0000042   2.500000000000e-01
    X0000065  C0000000   2.740101383751e-03
    X0000065  C0000001  -2.740101383751e-03
    X0000065  C0000002   1.417044111920e-03
    X0000065  C0000003  -1.417044111920e-03
    X0000065  C0000004   2.497901545450e-03
    X0000065  C0000005  -2.497901545450e-03
    X0000065  C0000006   2.652468258608e-03
    X0000065  C0000007  -2.652468258608e-03
    X0000065  C0000008   1.000000000000e+00
    X0000065  C0000043  -8.333333333333e-02
    X0000065  C0000044   8.333333333333e-02
    X0000066  C0000000   2.603096314564e-03
    X0000066  C0000001  -2.603096314564e-03
    X0000066  C0000002   4.766899176381e-03
    X0000066  C0000003  -4.766899176381e-03
    X0000066  C0000004   5.007603811781e-03
    X0000066  C0000005  -5.007603811781e-03
    X0000066  C0000006   6.036186348454e-04
    X0000066  C0000007  -6.036186348454e-04
    X0000066  C0000008   1.000000000000e+00
    X0000066  C0000045  -1.250000000000e-01
    X0000066  C0000046   1.250000000000e-01
    X0000067  C0000000   2.877106452939e-03
    X0000067  C0000001  -2.877106452939e-03
    X0000067  C0000002   8.899506269550e-04
    X0000067  C0000003  -8.899506269550e-04
    X0000067  C0000004   2.111588406656e-03
    X0000067  C0000005  -2.111588406656e-03
    X0000067  C0000006   5.005403524944e-03
    X0000067  C0000007  -5.005403524944e-03
    X0000067  C0000008   1.000000000000e+00
    X0000067  C0000047  -5.555555555556e-02
    X0000067  C0000048   5.555555555556e-02
    X0000068  C0000000   2.603096314564e-03
    X0000068  C0000001  -2.603096314564e-03
    X0000068  C0000002   1.574919330527e-02
    X0000068  C0000003  -1.574919330527e-02
    X0000068  C0000004   3.295314274428e-04
    X0000068  C0000005  -3.295314274428e-04
    X0000068  C0000006   3.700205779794e-04
    X0000068  C0000007  -3.700205779794e-04
    X0000068  C0000008   1.000000000000e+00
    X0000068  C0000049  -1.000000000000e+00
    X0000068  C0000050   1.000000000000e+00
    X0000069  C0000000   2.877106452939e-03
    X0000069  C0000001  -2.877106452939e-03
    X0000069  C0000002   6.849484774209e-03
    X0000069  C0000003  -6.849484774209e-03
    X0000069  C0000004   2.343455290574e-03
    X0000069  C0000005  -2.343455290574e-03
    X0000069  C0000006   4.097385271643e-04
    X0000069  C0000007  -4.097385271643e-04
    X0000069  C0000008   1.000000000000e+00
    X0000069  C0000051  -5.000000000000e-01
    X0000069  C0000052   5.000000000000e-01
    X0000070  C0000000   2.877106452939e-03
    X0000070  C0000001  -2.877106452939e-03
    X0000070  C0000002   3.789571578779e-03
    X0000070  C0000003  -3.789571578779e-03
    X0000070  C0000004   4.645385868760e-03
    X0000070  C0000005  -4.645385868760e-03
    X0000070  C0000006   2.120436125060e-03
    X0000070  C0000007  -2.120436125060e-03
    X0000070  C0000008   1.000000000000e+00
    X0000070  C0000053  -1.250000000000e-01
    X0000070  C0000054   1.250000000000e-01
    X0000071  C0000000   2.877106452939e-03
    X0000071  C0000001  -2.877106452939e-03
    X0000071  C0000002   1.034658621513e-02
    X0000071  C0000003  -1.034658621513e-02
    X0000071  C0000004   4.232459388733e-03
    X0000071  C0000005  -4.232459388733e-03
    X0000071  C0000006   7.723806718958e-05
    X0000071  C0000007  -7.723806718958e-05
    X0000071  C0000008   1.000000000000e+00
    X0000071  C0000055  -3.333333333333e-01
    X0000071  C0000056   3.333333333333e-01
    X0000072  C0000000   2.877106452939e-03
    X0000072  C0000001  -2.877106452939e-03
    X0000072  C0000002   1.072744463117e-02
    X0000072  C0000003  -1.072744463117e-02
    X0000072  C0000004   1.075099985187e-03
    X0000072  C0000005  -1.075099985187e-03
    X0000072  C0000006   1.004722825230e-05
    X0000072  C0000007  -1.004722825230e-05
    X0000072  C0000008   1.000000000000e+00
    X0000072  C0000057  -3.333333333333e-01
    X0000072  C0000058   3.333333333333e-01
    X0000073  C0000000   2.603096314564e-03
    X0000073  C0000001  -2.603096314564e-03
    X0000073  C0000002   5.583125484353e-03
    X0000073  C0000003  -5.583125484353e-03
    X0000073  C0000004   2.532316200069e-03
    X0000073  C0000005  -2.532316200069e-03
    X0000073  C0000006   1.497978937242e-03
    X0000073  C0000007  -1.497978937242e-03
    X0000073  C0000008   1.000000000000e+00
    X0000073  C0000059  -2.500000000000e-01
    X0000073  C0000060   2.500000000000e-01
    X0000074  C0000000   2.877106452939e-03
    X0000074  C0000001  -2.877106452939e-03
    X0000074  C0000002   1.571733711805e-02
    X0000074  C0000003  -1.571733711805e-02
    X0000074  C0000004   1.279316644448e-03
    X0000074  C0000005  -1.279316644448e-03
    X0000074  C0000008   1.000000000000e+00
    X0000074  C0000061  -5.000000000000e-01
    X0000074  C0000062   5.000000000000e-01
    X0000075  C0000000   2.603096314564e-03
    X0000075  C0000001  -2.603096314564e-03
    X0000075  C0000002   1.616372826207e-03
    X0000075  C0000003  -1.616372826207e-03
    X0000075  C0000004   1.366365476719e-03
    X0000075  C0000005  -1.366365476719e-03
    X0000075  C0000006   1.530161465238e-03
    X0000075  C0000007  -1.530161465238e-03
    X0000075  C0000008   1.000000000000e+00
    X0000075  C0000063  -2.000000000000e-01
    X0000075  C0000064   2.000000000000e-01
    X0000076  C0000000   2.877106452939e-03
    X0000076  C0000001  -2.877106452939e-03
    X0000076  C0000002   2.450398146718e-03
    X0000076  C0000003  -2.450398146718e-03
    X0000076  C0000004   2.620451291167e-03
    X0000076  C0000005  -2.620451291167e-03
    X0000076  C0000006   2.762202829676e-03
    X0000076  C0000007  -2.762202829676e-03
    X0000076  C0000008   1.000000000000e+00
    X0000076  C0000065  -8.333333333333e-02
    X0000076  C0000066   8.333333333333e-02
    X0000077  C0000000   2.877106452939e-03
    X0000077  C0000001  -2.877106452939e-03
    X0000077  C0000002   1.326997289392e-02
    X0000077  C0000003  -1.326997289392e-02
    X0000077  C0000004   2.084333185207e-03
    X0000077  C0000005  -2.084333185207e-03
    X0000077  C0000006   4.957679190746e-04
    X0000077  C0000007  -4.957679190746e-04
    X0000077  C0000008   1.000000000000e+00
    X0000077  C0000067  -1.000000000000e+00
    X0000077  C0000068   1.000000000000e+00
    X0000078  C0000000   2.877106452939e-03
    X0000078  C0000001  -2.877106452939e-03
    X0000078  C0000002   1.678770500847e-03
    X0000078  C0000003  -1.678770500847e-03
    X0000078  C0000004   3.433713523922e-03
    X0000078  C0000005  -3.433713523922e-03
    X0000078  C0000006   3.803346857321e-03
    X0000078  C0000007  -3.803346857321e-03
    X0000078  C0000008   1.000000000000e+00
    X0000078  C0000069  -6.250000000000e-02
    X0000078  C0000070   6.250000000000e-02
    X0000079  C0000000   2.877106452939e-03
    X0000079  C0000001  -2.877106452939e-03
    X0000079  C0000002   5.709943448694e-03
    X0000079  C0000003  -5.709943448694e-03
    X0000079  C0000004   2.212363600454e-03
    X0000079  C0000005  -2.212363600454e-03
    X0000079  C0000006   3.464095915865e-03
    X0000079  C0000007  -3.464095915865e-03
    X0000079  C0000008   1.000000000000e+00
    X0000079  C0000071  -2.000000000000e-01
    X0000079  C0000072   2.000000000000e-01
    X0000080  C0000000   2.603096314564e-03
    X0000080  C0000001  -2.603096314564e-03
    X0000080  C0000002   4.912931983804e-03
    X0000080  C0000003  -4.912931983804e-03
    X0000080  C0000004   1.441169209500e-03
    X0000080  C0000005  -1.441169209500e-03
    X0000080  C0000006   1.067674989749e-03
    X0000080  C0000007  -1.067674989749e-03
    X0000080  C0000008   1.000000000000e+00
    X0000080  C0000073  -2.500000000000e-01
    X0000080  C0000074   2.500000000000e-01
    X0000081  C0000000   2.740101383751e-03
    X0000081  C0000001  -2.740101383751e-03
    X0000081  C0000002   8.320027054499e-04
    X0000081  C0000003  -8.320027054499e-04
    X0000081  C0000004   1.433614773120e-03
    X0000081  C0000005  -1.433614773120e-03
    X0000081  C0000006   3.436623026112e-03
    X0000081  C0000007  -3.436623026112e-03
    X0000081  C0000008   1.000000000000e+00
    X0000081  C0000075  -6.250000000000e-02
    X0000081  C0000076   6.250000000000e-02
    X0000082  C0000000   2.740101383751e-03
    X0000082  C0000001  -2.740101383751e-03
    X0000082  C0000002   2.989930714310e-03
    X0000082  C0000003  -2.989930714310e-03
    X0000082  C0000004   1.906779242581e-03
    X0000082  C0000005  -1.906779242581e-03
    X0000082  C0000006   1.670665672828e-03
    X0000082  C0000007  -1.670665672828e-03
    X0000082  C0000008   1.000000000000e+00
    X0000082  C0000077  -1.000000000000e-01
    X0000082  C0000078   1.000000000000e-01
    X0000083  C0000000   2.603096314564e-03
    X0000083  C0000001  -2.603096314564e-03
    X0000083  C0000002   7.657721752689e-03
    X0000083  C0000003  -7.657721752689e-03
    X0000083  C0000004   2.123043499728e-03
    X0000083  C0000005  -2.123043499728e-03
    X0000083  C0000006   1.466895324836e-03
    X0000083  C0000007  -1.466895324836e-03
    X0000083  C0000008   1.000000000000e+00
    X0000083  C0000079  -1.000000000000e+00
    X0000083  C0000080   1.000000000000e+00
    X0000084  C0000000   2.603096314564e-03
    X0000084  C0000001  -2.603096314564e-03
    X0000084  C0000002   1.481130670136e-02
    X0000084  C0000003  -1.481130670136e-02
    X0000084  C0000004   4.085616945638e-03
    X0000084  C0000005  -4.085616945638e-03
    X0000084  C0000008   1.000000000000e+00
    X0000084  C0000081  -1.000000000000e+00
    X0000084  C0000082   1.000000000000e+00
    X0000085  C0000000   2.740101383751e-03
    X0000085  C0000001  -2.740101383751e-03
    X0000085  C0000002   1.173986460008e-02
    X0000085  C0000003  -1.173986460008e-02
    X0000085  C0000004   3.864810151582e-03
    X0000085  C0000005  -3.864810151582e-03
    X0000085  C0000006   2.337707436016e-03
    X0000085  C0000007  -2.337707436016e-03
    X0000085  C0000008   1.000000000000e+00
    X0000085  C0000083  -1.000000000000e+00
    X0000085  C0000084   1.000000000000e+00
    X0000086  C0000000   2.603096314564e-03
    X0000086  C0000001  -2.603096314564e-03
    X0000086  C0000002   2.098463126059e-04
    X0000086  C0000003  -2.098463126059e-04
    X0000086  C0000004   3.115834691157e-03
    X0000086  C0000005  -3.115834691157e-03
    X0000086  C0000006   2.662986450685e-03
    X0000086  C0000007  -2.662986450685e-03
    X0000086  C0000008   1.000000000000e+00
    X0000086  C0000085  -5.263157894737e-02
    X0000086  C0000086   5.263157894737e-02
    X0000087  C0000000   2.877106452939e-03
    X0000087  C0000001  -2.877106452939e-03
    X0000087  C0000002   8.999625715083e-04
    X0000087  C0000003  -8.999625715083e-04
    X0000087  C0000004   9.553646373377e-04
    X0000087  C0000005  -9.553646373377e-04
    X0000087  C0000006   4.833187753182e-03
    X0000087  C0000007  -4.833187753182e-03
    X0000087  C0000008   1.000000000000e+00
    X0000087  C0000087  -4.545454545455e-02
    X0000087  C0000088   4.545454545455e-02
    X0000088  C0000000   2.740101383751e-03
    X0000088  C0000001  -2.740101383751e-03
    X0000088  C0000002   4.407480479995e-03
    X0000088  C0000003  -4.407480479995e-03
    X0000088  C0000004   6.951562731447e-04
    X0000088  C0000005  -6.951562731447e-04
    X0000088  C0000006   1.146482936353e-03
    X0000088  C0000007  -1.146482936353e-03
    X0000088  C0000008   1.000000000000e+00
    X0000088  C0000089  -2.500000000000e-01
    X0000088  C0000090   2.500000000000e-01
    X0000089  C0000000   2.877106452939e-03
    X0000089  C0000001  -2.877106452939e-03
    X0000089  C0000002   9.829909197731e-04
    X0000089  C0000003  -9.829909197731e-04
    X0000089  C0000004   5.145854935071e-03
    X0000089  C0000005  -5.145854935071e-03
    X0000089  C0000006   4.313714654950e-03
    X0000089  C0000007  -4.313714654950e-03
    X0000089  C0000008   1.000000000000e+00
    X0000089  C0000091  -5.263157894737e-02
    X0000089  C0000092   5.263157894737e-02
    X0000090  C0000000   2.877106452939e-03
    X0000090  C0000001  -2.877106452939e-03
    X0000090  C0000002   1.192705762400e-02
    X0000090  C0000003  -1.192705762400e-02
    X0000090  C0000004   1.165851972547e-03
    X0000090  C0000005  -1.165851972547e-03
    X0000090  C0000006   2.157014315416e-04
    X0000090  C0000007  -2.157014315416e-04
    X0000090  C0000008   1.000000000000e+00
    X0000090  C0000093  -1.000000000000e+00
    X0000090  C0000094   1.000000000000e+00
    X0000091  C0000000   2.877106452939e-03
    X0000091  C0000001  -2.877106452939e-03
    X0000091  C0000002   1.220547058718e-02
    X0000091  C0000003  -1.220547058718e-02
    X0000091  C0000004   1.440774206290e-03
    X0000091  C0000005  -1.440774206290e-03
    X0000091  C0000006   1.018851739960e-04
    X0000091  C0000007  -1.018851739960e-04
    X0000091  C0000008   1.000000000000e+00
    X0000091  C0000095  -1.000000000000e+00
    X0000091  C0000096   1.000000000000e+00
    X0000092  C0000000   2.740101383751e-03
    X0000092  C0000001  -2.740101383751e-03
    X0000092  C0000002   2.154590694009e-03
    X0000092  C0000003  -2.154590694009e-03
    X0000092  C0000004   3.417172764529e-03
    X0000092  C0000005  -3.417172764529e-03
    X0000092  C0000006   1.831107348982e-03
    X0000092  C0000007  -1.831107348982e-03
    X0000092  C0000008   1.000000000000e+00
    X0000092  C0000097  -7.692307692308e-02
    X0000092  C0000098   7.692307692308e-02
    X0000093  C0000000   2.740101383751e-03
    X0000093  C0000001  -2.740101383751e-03
    X0000093  C0000002   8.746394309413e-03
    X0000093  C0000003  -8.746394309413e-03
    X0000093  C0000004   3.703155088135e-04
    X0000093  C0000005  -3.703155088135e-04
    X0000093  C0000006   9.260718665678e-04
    X0000093  C0000007  -9.260718665678e-04
    X0000093  C0000008   1.000000000000e+00
    X0000093  C0000099  -1.000000000000e+00
    X0000093  C0000100   1.000000000000e+00
    X0000094  C0000000   2.603096314564e-03
    X0000094  C0000001  -2.603096314564e-03
    X0000094  C0000002   3.925996964662e-03
    X0000094  C0000003  -3.925996964662e-03
    X0000094  C0000004   9.445514244803e-04
    X0000094  C0000005  -9.445514244803e-04
    X0000094  C0000006   1.403943160318e-03
    X0000094  C0000007  -1.403943160318e-03
    X0000094  C0000008   1.000000000000e+00
    X0000094  C0000101  -2.500000000000e-01
    X0000094  C0000102   2.500000000000e-01
    X0000095  C0000000   2.877106452939e-03
    X0000095  C0000001  -2.877106452939e-03
    X0000095  C0000002   8.018657410371e-03
    X0000095  C0000003  -8.018657410371e-03
    X0000095  C0000004   3.119044092233e-04
    X0000095  C0000005  -3.119044092233e-04
    X0000095  C0000006   2.611023442067e-03
    X0000095  C0000007  -2.611023442067e-03
    X0000095  C0000008   1.000000000000e+00
    X0000095  C0000103  -5.000000000000e-01
    X0000095  C0000104   5.000000000000e-01
    X0000096  C0000000  -1.000000000000e+00
    X0000096  C0000001  -1.000000000000e+00
    X0000096  C0000002  -1.000000000000e+00
    X0000096  C0000003  -1.000000000000e+00
    X0000096  C0000004  -1.000000000000e+00
    X0000096  C0000005  -1.000000000000e+00
    X0000096  C0000006  -1.000000000000e+00
    X0000096  C0000007  -1.000000000000e+00
    X0000096  OBJ        1.000000000000e+00
RHS
    RHS       C0000000   1.000000000000e+00
    RHS       C0000001  -1.000000000000e+00
    RHS       C0000002   1.000000000000e+00
    RHS       C0000003  -1.000000000000e+00
    RHS       C0000004   1.000000000000e+00
    RHS       C0000005  -1.000000000000e+00
    RHS       C0000006   1.000000000000e+00
    RHS       C0000007  -1.000000000000e+00
    RHS       C0000008   3.650000000000e+02
    RHS       C0000009  -1.000000000000e+00
    RHS       C0000010   1.000000000000e+00
    RHS       C0000011  -1.000000000000e+00
    RHS       C0000012   1.000000000000e+00
    RHS       C0000013  -1.000000000000e+00
    RHS       C0000014   1.000000000000e+00
    RHS       C0000015  -1.000000000000e+00
    RHS       C0000016   1.000000000000e+00
    RHS       C0000017  -1.000000000000e+00
    RHS       C0000018   1.000000000000e+00
    RHS       C0000019  -1.000000000000e+00
    RHS       C0000020   1.000000000000e+00
    RHS       C0000021  -1.000000000000e+00
    RHS       C0000022   1.000000000000e+00
    RHS       C0000023  -1.000000000000e+00
    RHS       C0000024   1.000000000000e+00
    RHS       C0000025  -1.000000000000e+00
    RHS       C0000026   1.000000000000e+00
    RHS       C0000027  -1.000000000000e+00
    RHS       C0000028   1.000000000000e+00
    RHS       C0000029  -1.000000000000e+00
    RHS       C0000030   1.000000000000e+00
    RHS       C0000031  -1.000000000000e+00
    RHS       C0000032   1.000000000000e+00
    RHS       C0000033  -1.000000000000e+00
    RHS       C0000034   1.000000000000e+00
    RHS       C0000035  -1.000000000000e+00
    RHS       C0000036   1.000000000000e+00
    RHS       C0000037  -1.000000000000e+00
    RHS       C0000038   1.000000000000e+00
    RHS       C0000039  -1.000000000000e+00
    RHS       C0000040   1.000000000000e+00
    RHS       C0000041  -1.000000000000e+00
    RHS       C0000042   1.000000000000e+00
    RHS       C0000043  -1.000000000000e+00
    RHS       C0000044   1.000000000000e+00
    RHS       C0000045  -1.000000000000e+00
    RHS       C0000046   1.000000000000e+00
    RHS       C0000047  -1.000000000000e+00
    RHS       C0000048   1.000000000000e+00
    RHS       C0000049  -1.000000000000e+00
    RHS       C0000050   1.000000000000e+00
    RHS       C0000051  -1.000000000000e+00
    RHS       C0000052   1.000000000000e+00
    RHS       C0000053  -1.000000000000e+00
    RHS       C0000054   1.000000000000e+00
    RHS       C0000055  -1.000000000000e+00
    RHS       C0000056   1.000000000000e+00
    RHS       C0000057  -1.000000000000e+00
    RHS       C0000058   1.000000000000e+00
    RHS       C0000059  -1.000000000000e+00
    RHS       C0000060   1.000000000000e+00
    RHS       C0000061  -1.000000000000e+00
    RHS       C0000062   1.000000000000e+00
    RHS       C0000063  -1.000000000000e+00
    RHS       C0000064   1.000000000000e+00
    RHS       C0000065  -1.000000000000e+00
    RHS       C0000066   1.000000000000e+00
    RHS       C0000067  -1.000000000000e+00
    RHS       C0000068   1.000000000000e+00
    RHS       C0000069  -1.000000000000e+00
    RHS       C0000070   1.000000000000e+00
    RHS       C0000071  -1.000000000000e+00
    RHS       C0000072   1.000000000000e+00
    RHS       C0000073  -1.000000000000e+00
    RHS       C0000074   1.000000000000e+00
    RHS       C0000075  -1.000000000000e+00
    RHS       C0000076   1.000000000000e+00
    RHS       C0000077  -1.000000000000e+00
    RHS       C0000078   1.000000000000e+00
    RHS       C0000079  -1.000000000000e+00
    RHS       C0000080   1.000000000000e+00
    RHS       C0000081  -1.000000000000e+00
    RHS       C0000082   1.000000000000e+00
    RHS       C0000083  -1.000000000000e+00
    RHS       C0000084   1.000000000000e+00
    RHS       C0000085  -1.000000000000e+00
    RHS       C0000086   1.000000000000e+00
    RHS       C0000087  -1.000000000000e+00
    RHS       C0000088   1.000000000000e+00
    RHS       C0000089  -1.000000000000e+00
    RHS       C0000090   1.000000000000e+00
    RHS       C0000091  -1.000000000000e+00
    RHS       C0000092   1.000000000000e+00
    RHS       C0000093  -1.000000000000e+00
    RHS       C0000094   1.000000000000e+00
    RHS       C0000095  -1.000000000000e+00
    RHS       C0000096   1.000000000000e+00
    RHS       C0000097  -1.000000000000e+00
    RHS       C0000098   1.000000000000e+00
    RHS       C0000099  -1.000000000000e+00
    RHS       C0000100   1.000000000000e+00
    RHS       C0000101  -1.000000000000e+00
    RHS       C0000102   1.000000000000e+00
    RHS       C0000103  -1.000000000000e+00
    RHS       C0000104   1.000000000000e+00
BOUNDS
 LO BND       X0000048   1.500000000000e+00
 UP BND       X0000048   6.000000000000e+00
 LO BND       X0000049   5.000000000000e+00
 UP BND       X0000049   2.000000000000e+01
 LO BND       X0000050   6.000000000000e+00
 UP BND       X0000050   2.400000000000e+01
 LO BND       X0000051   1.000000000000e+01
 UP BND       X0000051   4.000000000000e+01
 LO BND       X0000052   1.500000000000e+00
 UP BND       X0000052   6.000000000000e+00
 LO BND       X0000053   2.000000000000e+00
 UP BND       X0000053   8.000000000000e+00
 LO BND       X0000054   7.500000000000e+00
 UP BND       X0000054   3.000000000000e+01
 LO BND       X0000055   1.000000000000e+00
 UP BND       X0000055   4.000000000000e+00
 LO BND       X0000056   1.000000000000e+00
 UP BND       X0000056   4.000000000000e+00
 LO BND       X0000057   1.000000000000e+01
 UP BND       X0000057   4.000000000000e+01
 LO BND       X0000058   5.000000000000e-01
 UP BND       X0000058   2.000000000000e+00
 LO BND       X0000059   2.500000000000e+00
 UP BND       X0000059   1.000000000000e+01
 LO BND       X0000060   9.000000000000e+00
 UP BND       X0000060   3.600000000000e+01
 LO BND       X0000061   1.100000000000e+01
 UP BND       X0000061   4.400000000000e+01
 LO BND       X0000062   2.000000000000e+00
 UP BND       X0000062   8.000000000000e+00
 LO BND       X0000063   5.000000000000e-01
 UP BND       X0000063   2.000000000000e+00
 LO BND       X0000064   2.000000000000e+00
 UP BND       X0000064   8.000000000000e+00
 LO BND       X0000065   6.000000000000e+00
 UP BND       X0000065   2.400000000000e+01
 LO BND       X0000066   4.000000000000e+00
 UP BND       X0000066   1.600000000000e+01
 LO BND       X0000067   9.000000000000e+00
 UP BND       X0000067   3.600000000000e+01
 LO BND       X0000068   5.000000000000e-01
 UP BND       X0000068   2.000000000000e+00
 LO BND       X0000069   1.000000000000e+00
 UP BND       X0000069   4.000000000000e+00
 LO BND       X0000070   4.000000000000e+00
 UP BND       X0000070   1.600000000000e+01
 LO BND       X0000071   1.500000000000e+00
 UP BND       X0000071   6.000000000000e+00
 LO BND       X0000072   1.500000000000e+00
 UP BND       X0000072   6.000000000000e+00
 LO BND       X0000073   2.000000000000e+00
 UP BND       X0000073   8.000000000000e+00
 LO BND       X0000074   1.000000000000e+00
 UP BND       X0000074   4.000000000000e+00
 LO BND       X0000075   2.500000000000e+00
 UP BND       X0000075   1.000000000000e+01
 LO BND       X0000076   6.000000000000e+00
 UP BND       X0000076   2.400000000000e+01
 LO BND       X0000077   5.000000000000e-01
 UP BND       X0000077   2.000000000000e+00
 LO BND       X0000078   8.000000000000e+00
 UP BND       X0000078   3.200000000000e+01
 LO BND       X0000079   2.500000000000e+00
 UP BND       X0000079   1.000000000000e+01
 LO BND       X0000080   2.000000000000e+00
 UP BND       X0000080   8.000000000000e+00
 LO BND       X0000081   8.000000000000e+00
 UP BND       X0000081   3.200000000000e+01
 LO BND       X0000082   5.000000000000e+00
 UP BND       X0000082   2.000000000000e+01
 LO BND       X0000083   5.000000000000e-01
 UP BND       X0000083   2.000000000000e+00
 LO BND       X0000084   5.000000000000e-01
 UP BND       X0000084   2.000000000000e+00
 LO BND       X0000085   5.000000000000e-01
 UP BND       X0000085   2.000000000000e+00
 LO BND       X0000086   9.500000000000e+00
 UP BND       X0000086   3.800000000000e+01
 LO BND       X0000087   1.100000000000e+01
 UP BND       X0000087   4.400000000000e+01
 LO BND       X0000088   2.000000000000e+00
 UP BND       X0000088   8.000000000000e+00
 LO BND       X0000089   9.500000000000e+00
 UP BND       X0000089   3.800000000000e+01
 LO BND       X0000090   5.000000000000e-01
 UP BND       X0000090   2.000000000000e+00
 LO BND       X0000091   5.000000000000e-01
 UP BND       X0000091   2.000000000000e+00
 LO BND       X0000092   6.500000000000e+00
 UP BND       X0000092   2.600000000000e+01
 LO BND       X0000093   5.000000000000e-01
 UP BND       X0000093   2.000000000000e+00
 LO BND       X0000094   2.000000000000e+00
 UP BND       X0000094   8.000000000000e+00
 LO BND       X0000095   1.000000000000e+00
 UP BND       X0000095   4.000000000000e+00
ENDATA
