\* U11R08_energy_weights *\
Minimize
OBJ: w_028
Subject To
_C1: d_000 - 0.166666666667 w_000 >= -1
_C10: d_004 + 0.25 w_004 >= 1
_C100: - 0.00399931676063 w_000 - 1.51696129595e-05 w_001
 - 0.00133239767161 w_002 - 0.0122054705872 w_003 - 0.0112572686465 w_004
 - 0.0128335936945 w_005 - 0.0132699728939 w_006 - 0.00247881588833 w_007
 - 0.00684948477421 w_008 - 0.00845068798746 w_009 - 0.00123642458695 w_010
 - 0.00392599696466 w_011 - 0.023738219405 w_012 - 0.00298993071431 w_013
 - 0.0103231238804 w_014 - 0.000827451821562 w_015 - 0.000388746614774 w_016
 - 0.00440748047999 w_017 - 0.000853037902087 w_018 - 0.00369460980165 w_019
 - 0.0108391941133 w_020 - 0.011927057624 w_021 - 0.00908963208531 w_022
 - 0.00385763257559 w_023 - 0.000314718903532 w_024 - 0.0157173371181 w_025
 - 0.000731782129164 w_026 - 0.0148113067014 w_027 - 0.00254151695523 w_028
 - 0.00558312548435 w_029 - 0.0107274446312 w_030 - 0.00209097945033 w_031
 - 0.0191490069617 w_032 - 0.000502114188958 w_033 - 0.00570994344869 w_034
 - 0.00783621753185 w_035 - 0.00476689917638 w_036 - 0.0149962748487 w_037
 - 0.00143373068618 w_038 - 0.00841893293099 w_039 - 0.00141522375836 w_040
 - 0.00079964086447 w_041 - 0.00205790969408 w_042 - 0.00801865741037 w_043
 - 0.000862544192875 w_044 - 0.0043615671181 w_045 - 0.00765772175269 w_046
 - 0.00406039973548 w_047 - worst_relative_error <= -1
_C101: 0.00293517009826 w_000 + 0.0017228064978 w_001 + 0.00457443341727 w_002
 + 0.00144077420629 w_003 + 0.000484273934726 w_004 + 0.00280417715894 w_005
 + 0.00208433318521 w_006 + 0.00112941292648 w_007 + 0.00234345529057 w_008
 + 0.00130425122204 w_009 + 0.00293250382659 w_010 + 0.00094455142448 w_011
 + 0.000414506492865 w_012 + 0.00190677924258 w_013 + 0.00493961388436 w_014
 + 0.00534913346171 w_015 + 0.00157813657236 w_016 + 0.000695156273145 w_017
 + 0.003109169012 w_018 + 0.00456149706216 w_019 + 0.000706018861403 w_020
 + 0.00116585197255 w_021 + 0.003916061818 w_022 + 0.000885004690663 w_023
 + 0.00277435441663 w_024 + 0.00127931664445 w_025 + 0.00489107786501 w_026
 + 0.00408561694564 w_027 + 0.00371080827532 w_028 + 0.00253231620007 w_029
 + 0.00107509998519 w_030 + 0.00207939564509 w_031 + 0.00188085715696 w_032
 + 0.00395338962129 w_033 + 0.00221236360045 w_034 + 0.00103006961932 w_035
 + 0.00500760381178 w_036 + 0.00314062114255 w_037 + 0.000824865452032 w_038
 + 0.00319868661433 w_039 + 0.00217162889448 w_040 + 0.00236735298474 w_041
 + 0.000672443588604 w_042 + 0.000311904409223 w_043 + 0.00360361427937 w_044
 + 0.00249064336148 w_045 + 0.00212304349973 w_046 + 0.00420298227423 w_047
 - worst_relative_error <= 1
_C102: - 0.00293517009826 w_000 - 0.0017228064978 w_001
 - 0.00457443341727 w_002 - 0.00144077420629 w_003 - 0.000484273934726 w_004
 - 0.00280417715894 w_005 - 0.00208433318521 w_006 - 0.00112941292648 w_007
 - 0.00234345529057 w_008 - 0.00130425122204 w_009 - 0.00293250382659 w_010
 - 0.00094455142448 w_011 - 0.000414506492865 w_012 - 0.00190677924258 w_013
 - 0.00493961388436 w_014 - 0.00534913346171 w_015 - 0.00157813657236 w_016
 - 0.000695156273145 w_017 - 0.003109169012 w_018 - 0.00456149706216 w_019
 - 0.000706018861403 w_020 - 0.00116585197255 w_021 - 0.003916061818 w_022
 - 0.000885004690663 w_023 - 0.00277435441663 w_024 - 0.00127931664445 w_025
 - 0.00489107786501 w_026 - 0.00408561694564 w_027 - 0.00371080827532 w_028
 - 0.00253231620007 w_029 - 0.00107509998519 w_030 - 0.00207939564509 w_031
 - 0.00188085715696 w_032 - 0.00395338962129 w_033 - 0.00221236360045 w_034
 - 0.00103006961932 w_035 - 0.00500760381178 w_036 - 0.00314062114255 w_037
 - 0.000824865452032 w_038 - 0.00319868661433 w_039 - 0.00217162889448 w_040
 - 0.00236735298474 w_041 - 0.000672443588604 w_042 - 0.000311904409223 w_043
 - 0.00360361427937 w_044 - 0.00249064336148 w_045 - 0.00212304349973 w_046
 - 0.00420298227423 w_047 - worst_relative_error <= -1
_C103: w_012 >= 0.999998353366
_C104: w_012 <= 1.00000035337
_C105: w_042 >= 7.99999455474
_C106: w_042 <= 7.99999655474
_C107: w_039 >= 3.9999984273
_C108: w_039 <= 4.0000004273
_C109: w_010 >= 17.4017494859
_C11: d_005 - 0.333333333333 w_005 >= -1
_C110: w_010 <= 17.4017514859
_C111: w_017 >= 4.99999899361
_C112: w_017 <= 5.00000099361
_C113: w_000 >= 5.99999899061
_C114: w_000 <= 6.00000099061
_C115: w_009 >= 2.99999899622
_C116: w_009 <= 3.00000099622
_C117: w_020 >= 1.99999899747
_C118: w_020 <= 2.00000099747
_C119: w_022 >= 1.99999899708
_C12: d_005 + 0.333333333333 w_005 >= 1
_C120: w_022 <= 2.00000099708
_C121: w_021 >= 0.999998998363
_C122: w_021 <= 1.00000099836
_C123: w_011 >= 3.99999899486
_C124: w_011 <= 4.00000099486
_C125: w_001 >= 18.9999989803
_C126: w_001 <= 19.0000009803
_C127: w_037 >= 0.999998998478
_C128: w_037 <= 1.00000099848
_C129: w_025 >= 0.999998998468
_C13: d_006 - w_006 >= -1
_C130: w_025 <= 1.00000099847
_C131: w_035 >= 3.99999899579
_C132: w_035 <= 4.00000099579
_C133: w_031 >= 12.9999989777
_C134: w_031 <= 13.0000009777
_C135: w_026 >= 9.99999898552
_C136: w_026 <= 10.0000009855
_C137: w_002 >= 6.99999898722
_C138: w_002 <= 7.00000098722
_C139: w_019 >= 9.9404115506
_C14: d_006 + w_006 >= 1
_C140: w_019 <= 9.9404135506
_C141: w_036 >= 5.99999899317
_C142: w_036 <= 6.00000099317
_C143: w_014 >= 3.99999899565
_C144: w_014 <= 4.00000099565
_C145: w_032 >= 0.999998998548
_C146: w_032 <= 1.00000099855
_C147: w_046 >= 0.99999899833
_C148: w_046 <= 1.00000099833
_C149: w_030 >= 2.99999899631
_C15: d_007 - 0.333333333333 w_007 >= -1
_C150: w_030 <= 3.00000099631
_C151: w_047 >= 4.99999899277
_C152: w_047 <= 5.00000099277
_C153: w_003 >= 4.00001964018
_C154: w_003 <= 4.00002164018
_C155: w_008 >= 1.99999899671
_C156: w_008 <= 2.00000099671
_C157: w_007 >= 2.9999989944
_C158: w_007 <= 3.0000009944
_C159: w_015 >= 19.0036274285
_C16: d_007 + 0.333333333333 w_007 >= 1
_C160: w_015 <= 19.0036294285
_C161: w_027 >= 0.999998998509
_C162: w_027 <= 1.00000099851
_C163: w_041 >= 8.99999898479
_C164: w_041 <= 9.00000098479
_C165: w_016 >= 17.9999989731
_C166: w_016 <= 18.0000009731
_C167: w_018 >= 15.9999989747
_C168: w_018 <= 16.0000009747
_C169: w_044 >= 18.9999989225
_C17: d_008 - 0.5 w_008 >= -1
_C170: w_044 <= 19.0000009225
_C171: w_034 >= 3.9999989941
_C172: w_034 <= 4.0000009941
_C173: w_024 >= 22.9999989608
_C174: w_024 <= 23.0000009608
_C175: w_038 >= 19.9999989659
_C176: w_038 <= 20.0000009659
_C177: w_040 >= 18.9999989777
_C178: w_040 <= 19.0000009777
_C179: w_033 >= 24.6541874366
_C18: d_008 + 0.5 w_008 >= 1
_C180: w_033 <= 24.6541894366
_C19: d_009 - 0.333333333333 w_009 >= -1
_C2: d_000 + 0.166666666667 w_000 >= 1
_C20: d_009 + 0.333333333333 w_009 >= 1
_C21: d_010 - 0.0666666666667 w_010 >= -1
_C22: d_010 + 0.0666666666667 w_010 >= 1
_C23: d_011 - 0.25 w_011 >= -1
_C24: d_011 + 0.25 w_011 >= 1
_C25: d_012 - w_012 >= -1
_C26: d_012 + w_012 >= 1
_C27: d_013 - 0.125 w_013 >= -1
_C28: d_013 + 0.125 w_013 >= 1
_C29: d_014 - 0.25 w_014 >= -1
_C3: d_001 - 0.0526315789474 w_001 >= -1
_C30: d_014 + 0.25 w_014 >= 1
_C31: d_015 - 0.0416666666667 w_015 >= -1
_C32: d_015 + 0.0416666666667 w_015 >= 1
_C33: d_016 - 0.0555555555556 w_016 >= -1
_C34: d_016 + 0.0555555555556 w_016 >= 1
_C35: d_017 - 0.2 w_017 >= -1
_C36: d_017 + 0.2 w_017 >= 1
_C37: d_018 - 0.0625 w_018 >= -1
_C38: d_018 + 0.0625 w_018 >= 1
_C39: d_019 - 0.111111111111 w_019 >= -1
_C4: d_001 + 0.0526315789474 w_001 >= 1
_C40: d_019 + 0.111111111111 w_019 >= 1
_C41: d_020 - 0.5 w_020 >= -1
_C42: d_020 + 0.5 w_020 >= 1
_C43: d_021 - w_021 >= -1
_C44: d_021 + w_021 >= 1
_C45: d_022 - 0.5 w_022 >= -1
_C46: d_022 + 0.5 w_022 >= 1
_C47: d_023 - 0.166666666667 w_023 >= -1
_C48: d_023 + 0.166666666667 w_023 >= 1
_C49: d_024 - 0.0434782608696 w_024 >= -1
_C5: d_002 - 0.142857142857 w_002 >= -1
_C50: d_024 + 0.0434782608696 w_024 >= 1
_C51: d_025 - w_025 >= -1
_C52: d_025 + w_025 >= 1
_C53: d_026 - 0.1 w_026 >= -1
_C54: d_026 + 0.1 w_026 >= 1
_C55: d_027 - w_027 >= -1
_C56: d_027 + w_027 >= 1
_C57: d_028 - 0.0714285714286 w_028 >= -1
_C58: d_028 + 0.0714285714286 w_028 >= 1
_C59: d_029 - 0.25 w_029 >= -1
_C6: d_002 + 0.142857142857 w_002 >= 1
_C60: d_029 + 0.25 w_029 >= 1
_C61: d_030 - 0.333333333333 w_030 >= -1
_C62: d_030 + 0.333333333333 w_030 >= 1
_C63: d_031 - 0.0769230769231 w_031 >= -1
_C64: d_031 + 0.0769230769231 w_031 >= 1
_C65: d_032 - w_032 >= -1
_C66: d_032 + w_032 >= 1
_C67: d_033 - 0.0434782608696 w_033 >= -1
_C68: d_033 + 0.0434782608696 w_033 >= 1
_C69: d_034 - 0.25 w_034 >= -1
_C7: d_003 - 0.25 w_003 >= -1
_C70: d_034 + 0.25 w_034 >= 1
_C71: d_035 - 0.25 w_035 >= -1
_C72: d_035 + 0.25 w_035 >= 1
_C73: d_036 - 0.166666666667 w_036 >= -1
_C74: d_036 + 0.166666666667 w_036 >= 1
_C75: d_037 - w_037 >= -1
_C76: d_037 + w_037 >= 1
_C77: d_038 - 0.05 w_038 >= -1
_C78: d_038 + 0.05 w_038 >= 1
_C79: d_039 - 0.25 w_039 >= -1
_C8: d_003 + 0.25 w_003 >= 1
_C80: d_039 + 0.25 w_039 >= 1
_C81: d_040 - 0.0526315789474 w_040 >= -1
_C82: d_040 + 0.0526315789474 w_040 >= 1
_C83: d_041 - 0.111111111111 w_041 >= -1
_C84: d_041 + 0.111111111111 w_041 >= 1
_C85: d_042 - 0.125 w_042 >= -1
_C86: d_042 + 0.125 w_042 >= 1
_C87: d_043 - 0.5 w_043 >= -1
_C88: d_043 + 0.5 w_043 >= 1
_C89: d_044 - 0.0526315789474 w_044 >= -1
_C9: d_004 - 0.25 w_004 >= -1
_C90: d_044 + 0.0526315789474 w_044 >= 1
_C91: d_045 - 0.333333333333 w_045 >= -1
_C92: d_045 + 0.333333333333 w_045 >= 1
_C93: d_046 - w_046 >= -1
_C94: d_046 + w_046 >= 1
_C95: d_047 - 0.2 w_047 >= -1
_C96: d_047 + 0.2 w_047 >= 1
_C97: 0.00287710645294 w_000 + 0.00260309631456 w_001 + 0.00274010138375 w_002
 + 0.00287710645294 w_003 + 0.00287710645294 w_004 + 0.00287710645294 w_005
 + 0.00287710645294 w_006 + 0.00287710645294 w_007 + 0.00287710645294 w_008
 + 0.00274010138375 w_009 + 0.00260309631456 w_010 + 0.00260309631456 w_011
 + 0.00274010138375 w_012 + 0.00274010138375 w_013 + 0.00274010138375 w_014
 + 0.00287710645294 w_015 + 0.00274010138375 w_016 + 0.00274010138375 w_017
 + 0.00274010138375 w_018 + 0.00260309631456 w_019 + 0.00260309631456 w_020
 + 0.00287710645294 w_021 + 0.00274010138375 w_022 + 0.00274010138375 w_023
 + 0.00274010138375 w_024 + 0.00287710645294 w_025 + 0.00260309631456 w_026
 + 0.00260309631456 w_027 + 0.00274010138375 w_028 + 0.00260309631456 w_029
 + 0.00287710645294 w_030 + 0.00287710645294 w_031 + 0.00287710645294 w_032
 + 0.00260309631456 w_033 + 0.00287710645294 w_034 + 0.00260309631456 w_035
 + 0.00260309631456 w_036 + 0.00274010138375 w_037 + 0.00287710645294 w_038
 + 0.00287710645294 w_039 + 0.00274010138375 w_040 + 0.00274010138375 w_041
 + 0.00260309631456 w_042 + 0.00287710645294 w_043 + 0.00287710645294 w_044
 + 0.00274010138375 w_045 + 0.00260309631456 w_046 + 0.00274010138375 w_047
 - worst_relative_error <= 1
_C98: - 0.00287710645294 w_000 - 0.00260309631456 w_001
 - 0.00274010138375 w_002 - 0.00287710645294 w_003 - 0.00287710645294 w_004
 - 0.00287710645294 w_005 - 0.00287710645294 w_006 - 0.00287710645294 w_007
 - 0.00287710645294 w_008 - 0.00274010138375 w_009 - 0.00260309631456 w_010
 - 0.00260309631456 w_011 - 0.00274010138375 w_012 - 0.00274010138375 w_013
 - 0.00274010138375 w_014 - 0.00287710645294 w_015 - 0.00274010138375 w_016
 - 0.00274010138375 w_017 - 0.00274010138375 w_018 - 0.00260309631456 w_019
 - 0.00260309631456 w_020 - 0.00287710645294 w_021 - 0.00274010138375 w_022
 - 0.00274010138375 w_023 - 0.00274010138375 w_024 - 0.00287710645294 w_025
 - 0.00260309631456 w_026 - 0.00260309631456 w_027 - 0.00274010138375 w_028
 - 0.00260309631456 w_029 - 0.00287710645294 w_030 - 0.00287710645294 w_031
 - 0.00287710645294 w_032 - 0.00260309631456 w_033 - 0.00287710645294 w_034
 - 0.00260309631456 w_035 - 0.00260309631456 w_036 - 0.00274010138375 w_037
 - 0.00287710645294 w_038 - 0.00287710645294 w_039 - 0.00274010138375 w_040
 - 0.00274010138375 w_041 - 0.00260309631456 w_042 - 0.00287710645294 w_043
 - 0.00287710645294 w_044 - 0.00274010138375 w_045 - 0.00260309631456 w_046
 - 0.00274010138375 w_047 - worst_relative_error <= -1
_C99: 0.00399931676063 w_000 + 1.51696129595e-05 w_001
 + 0.00133239767161 w_002 + 0.0122054705872 w_003 + 0.0112572686465 w_004
 + 0.0128335936945 w_005 + 0.0132699728939 w_006 + 0.00247881588833 w_007
 + 0.00684948477421 w_008 + 0.00845068798746 w_009 + 0.00123642458695 w_010
 + 0.00392599696466 w_011 + 0.023738219405 w_012 + 0.00298993071431 w_013
 + 0.0103231238804 w_014 + 0.000827451821562 w_015 + 0.000388746614774 w_016
 + 0.00440748047999 w_017 + 0.000853037902087 w_018 + 0.00369460980165 w_019
 + 0.0108391941133 w_020 + 0.011927057624 w_021 + 0.00908963208531 w_022
 + 0.00385763257559 w_023 + 0.000314718903532 w_024 + 0.0157173371181 w_025
 + 0.000731782129164 w_026 + 0.0148113067014 w_027 + 0.00254151695523 w_028
 + 0.00558312548435 w_029 + 0.0107274446312 w_030 + 0.00209097945033 w_031
 + 0.0191490069617 w_032 + 0.000502114188958 w_033 + 0.00570994344869 w_034
 + 0.00783621753185 w_035 + 0.00476689917638 w_036 + 0.0149962748487 w_037
 + 0.00143373068618 w_038 + 0.00841893293099 w_039 + 0.00141522375836 w_040
 + 0.00079964086447 w_041 + 0.00205790969408 w_042 + 0.00801865741037 w_043
 + 0.000862544192875 w_044 + 0.0043615671181 w_045 + 0.00765772175269 w_046
 + 0.00406039973548 w_047 - worst_relative_error <= 1
primary_optimum_band: worst_relative_error <= 1e-06
secondary_optimum_band: d_000 + d_001 + d_002 + d_003 + d_004 + d_005 + d_006
 + d_007 + d_008 + d_009 + d_010 + d_011 + d_012 + d_013 + d_014 + d_015
 + d_016 + d_017 + d_018 + d_019 + d_020 + d_021 + d_022 + d_023 + d_024
 + d_025 + d_026 + d_027 + d_028 + d_029 + d_030 + d_031 + d_032 + d_033
 + d_034 + d_035 + d_036 + d_037 + d_038 + d_039 + d_040 + d_041 + d_042
 + d_043 + d_044 + d_045 + d_046 + d_047 <= 0.544716173635
total_days: w_000 + w_001 + w_002 + w_003 + w_004 + w_005 + w_006 + w_007
 + w_008 + w_009 + w_010 + w_011 + w_012 + w_013 + w_014 + w_015 + w_016
 + w_017 + w_018 + w_019 + w_020 + w_021 + w_022 + w_023 + w_024 + w_025
 + w_026 + w_027 + w_028 + w_029 + w_030 + w_031 + w_032 + w_033 + w_034
 + w_035 + w_036 + w_037 + w_038 + w_039 + w_040 + w_041 + w_042 + w_043
 + w_044 + w_045 + w_046 + w_047 = 365
Bounds
 3 <= w_000 <= 12
 9.5 <= w_001 <= 38
 3.5 <= w_002 <= 14
 2 <= w_003 <= 8
 2 <= w_004 <= 8
 1.5 <= w_005 <= 6
 0.5 <= w_006 <= 2
 1.5 <= w_007 <= 6
 1 <= w_008 <= 4
 1.5 <= w_009 <= 6
 7.5 <= w_010 <= 30
 2 <= w_011 <= 8
 0.5 <= w_012 <= 2
 4 <= w_013 <= 16
 2 <= w_014 <= 8
 12 <= w_015 <= 48
 9 <= w_016 <= 36
 2.5 <= w_017 <= 10
 8 <= w_018 <= 32
 4.5 <= w_019 <= 18
 1 <= w_020 <= 4
 0.5 <= w_021 <= 2
 1 <= w_022 <= 4
 3 <= w_023 <= 12
 11.5 <= w_024 <= 46
 0.5 <= w_025 <= 2
 5 <= w_026 <= 20
 0.5 <= w_027 <= 2
 7 <= w_028 <= 28
 2 <= w_029 <= 8
 1.5 <= w_030 <= 6
 6.5 <= w_031 <= 26
 0.5 <= w_032 <= 2
 11.5 <= w_033 <= 46
 2 <= w_034 <= 8
 2 <= w_035 <= 8
 3 <= w_036 <= 12
 0.5 <= w_037 <= 2
 10 <= w_038 <= 40
 2 <= w_039 <= 8
 9.5 <= w_040 <= 38
 4.5 <= w_041 <= 18
 4 <= w_042 <= 16
 1 <= w_043 <= 4
 9.5 <= w_044 <= 38
 1.5 <= w_045 <= 6
 0.5 <= w_046 <= 2
 2.5 <= w_047 <= 10
End
