\* independent_energy_feasibility *\
Minimize
OBJ: t
Subject To
_C1: w_000 + w_001 + w_002 + w_003 + w_004 + w_005 + w_006 + w_007 + w_008
 + w_009 + w_010 + w_011 + w_012 + w_013 + w_014 + w_015 + w_016 + w_017
 + w_018 + w_019 + w_020 + w_021 + w_022 + w_023 = 365
_C2: - t + 0.00274010138375 w_000 + 0.00260309631456 w_001
 + 0.00274010138375 w_002 + 0.00287710645294 w_003 + 0.00274010138375 w_004
 + 0.00260309631456 w_005 + 0.00287710645294 w_006 + 0.00274010138375 w_007
 + 0.00287710645294 w_008 + 0.00274010138375 w_009 + 0.00260309631456 w_010
 + 0.00287710645294 w_011 + 0.00260309631456 w_012 + 0.00260309631456 w_013
 + 0.00260309631456 w_014 + 0.00274010138375 w_015 + 0.00260309631456 w_016
 + 0.00274010138375 w_017 + 0.00260309631456 w_018 + 0.00260309631456 w_019
 + 0.00287710645294 w_020 + 0.00274010138375 w_021 + 0.00274010138375 w_022
 + 0.00274010138375 w_023 <= 1
_C3: - t - 0.00274010138375 w_000 - 0.00260309631456 w_001
 - 0.00274010138375 w_002 - 0.00287710645294 w_003 - 0.00274010138375 w_004
 - 0.00260309631456 w_005 - 0.00287710645294 w_006 - 0.00274010138375 w_007
 - 0.00287710645294 w_008 - 0.00274010138375 w_009 - 0.00260309631456 w_010
 - 0.00287710645294 w_011 - 0.00260309631456 w_012 - 0.00260309631456 w_013
 - 0.00260309631456 w_014 - 0.00274010138375 w_015 - 0.00260309631456 w_016
 - 0.00274010138375 w_017 - 0.00260309631456 w_018 - 0.00260309631456 w_019
 - 0.00287710645294 w_020 - 0.00274010138375 w_021 - 0.00274010138375 w_022
 - 0.00274010138375 w_023 <= -1
_C4: - t + 0.00385763257559 w_000 + 0.00369460980165 w_001
 + 0.00030177416714 w_002 + 0.0132699728939 w_003 + 0.000449425066612 w_004
 + 0.00298204251557 w_005 + 0.00500324174629 w_006 + 0.000772740084155 w_007
 + 0.000111547220629 w_008 + 0.0104733030487 w_009 + 0.0131501329515 w_010
 + 0.0107274446312 w_011 + 0.00450861123306 w_012 + 0.0148113067014 w_014
 + 0.0101955980008 w_015 + 0.00783621753185 w_016 + 0.00116189122194 w_017
 + 0.000892074372769 w_018 + 0.00558312548435 w_019 + 0.0191490069617 w_020
 + 0.00874639430941 w_021 + 0.00430341693509 w_022 + 0.000853037902087 w_023
 <= 1
_C5: - t - 0.00385763257559 w_000 - 0.00369460980165 w_001
 - 0.00030177416714 w_002 - 0.0132699728939 w_003 - 0.000449425066612 w_004
 - 0.00298204251557 w_005 - 0.00500324174629 w_006 - 0.000772740084155 w_007
 - 0.000111547220629 w_008 - 0.0104733030487 w_009 - 0.0131501329515 w_010
 - 0.0107274446312 w_011 - 0.00450861123306 w_012 - 0.0148113067014 w_014
 - 0.0101955980008 w_015 - 0.00783621753185 w_016 - 0.00116189122194 w_017
 - 0.000892074372769 w_018 - 0.00558312548435 w_019 - 0.0191490069617 w_020
 - 0.00874639430941 w_021 - 0.00430341693509 w_022 - 0.000853037902087 w_023
 <= -1
_C6: - t + 0.000885004690663 w_000 + 0.00456149706216 w_001
 + 0.00294637831432 w_002 + 0.00208433318521 w_003 + 0.00460583617242 w_004
 + 0.000593788574532 w_005 + 0.00300207376685 w_006 + 0.00357344590925 w_007
 + 0.00215666814793 w_008 + 0.00421384486249 w_009 + 0.00108853009431 w_010
 + 0.00107509998519 w_011 + 0.00450185157754 w_012 + 0.00180116525947 w_013
 + 0.00408561694564 w_014 + 0.000412037722806 w_015 + 0.00103006961932 w_016
 + 0.0010210339209 w_017 + 0.00404379598084 w_018 + 0.00253231620007 w_019
 + 0.00188085715696 w_020 + 0.000370315508814 w_021 + 0.00203604404286 w_022
 + 0.003109169012 w_023 <= 1
_C7: - t - 0.000885004690663 w_000 - 0.00456149706216 w_001
 - 0.00294637831432 w_002 - 0.00208433318521 w_003 - 0.00460583617242 w_004
 - 0.000593788574532 w_005 - 0.00300207376685 w_006 - 0.00357344590925 w_007
 - 0.00215666814793 w_008 - 0.00421384486249 w_009 - 0.00108853009431 w_010
 - 0.00107509998519 w_011 - 0.00450185157754 w_012 - 0.00180116525947 w_013
 - 0.00408561694564 w_014 - 0.000412037722806 w_015 - 0.00103006961932 w_016
 - 0.0010210339209 w_017 - 0.00404379598084 w_018 - 0.00253231620007 w_019
 - 0.00188085715696 w_020 - 0.000370315508814 w_021 - 0.00203604404286 w_022
 - 0.003109169012 w_023 <= -1
Bounds
 6 <= w_000 <= 24
 5 <= w_001 <= 20
 20 <= w_002 <= 80
 0.5 <= w_003 <= 2
 22.5 <= w_004 <= 90
 5.5 <= w_005 <= 22
 2.5 <= w_006 <= 10
 16.5 <= w_007 <= 66
 12.5 <= w_008 <= 50
 3 <= w_009 <= 12
 2.5 <= w_010 <= 10
 3 <= w_011 <= 12
 6 <= w_012 <= 24
 14.5 <= w_013 <= 58
 1.5 <= w_014 <= 6
 2.5 <= w_015 <= 10
 2.5 <= w_016 <= 10
 20.5 <= w_017 <= 82
 14.5 <= w_018 <= 58
 4 <= w_019 <= 16
 1.5 <= w_020 <= 6
 0.5 <= w_021 <= 2
 7 <= w_022 <= 28
 8 <= w_023 <= 32
End
