*SENSE:Minimize
NAME          independent_energy_feasibility
ROWS
 N  OBJ
 E  _C1
 L  _C2
 L  _C3
 L  _C4
 L  _C5
 L  _C6
 L  _C7
COLUMNS
    t         _C2       -1.000000000000e+00
    t         _C3       -1.000000000000e+00
    t         _C4       -1.000000000000e+00
    t         _C5       -1.000000000000e+00
    t         _C6       -1.000000000000e+00
    t         _C7       -1.000000000000e+00
    t         OBJ        1.000000000000e+00
    w_000     _C1        1.000000000000e+00
    w_000     _C2        2.740101383751e-03
    w_000     _C3       -2.740101383751e-03
    w_000     _C4        3.857632575591e-03
    w_000     _C5       -3.857632575591e-03
    w_000     _C6        8.850046906631e-04
    w_000     _C7       -8.850046906631e-04
    w_001     _C1        1.000000000000e+00
    w_001     _C2        2.603096314564e-03
    w_001     _C3       -2.603096314564e-03
    w_001     _C4        3.694609801653e-03
    w_001     _C5       -3.694609801653e-03
    w_001     _C6        4.561497062164e-03
    w_001     _C7       -4.561497062164e-03
    w_002     _C1        1.000000000000e+00
    w_002     _C2        2.740101383751e-03
    w_002     _C3       -2.740101383751e-03
    w_002     _C4        3.017741671402e-04
    w_002     _C5       -3.017741671402e-04
    w_002     _C6        2.946378314324e-03
    w_002     _C7       -2.946378314324e-03
    w_003     _C1        1.000000000000e+00
    w_003     _C2        2.877106452939e-03
    w_003     _C3       -2.877106452939e-03
    w_003     _C4        1.326997289392e-02
    w_003     _C5       -1.326997289392e-02
    w_003     _C6        2.084333185207e-03
    w_003     _C7       -2.084333185207e-03
    w_004     _C1        1.000000000000e+00
    w_004     _C2        2.740101383751e-03
    w_004     _C3       -2.740101383751e-03
    w_004     _C4        4.494250666123e-04
    w_004     _C5       -4.494250666123e-04
    w_004     _C6        4.605836172419e-03
    w_004     _C7       -4.605836172419e-03
    w_005     _C1        1.000000000000e+00
    w_005     _C2        2.603096314564e-03
    w_005     _C3       -2.603096314564e-03
    w_005     _C4        2.982042515571e-03
    w_005     _C5       -2.982042515571e-03
    w_005     _C6        5.937885745322e-04
    w_005     _C7       -5.937885745322e-04
    w_006     _C1        1.000000000000e+00
    w_006     _C2        2.877106452939e-03
    w_006     _C3       -2.877106452939e-03
    w_006     _C4        5.003241746289e-03
    w_006     _C5       -5.003241746289e-03
    w_006     _C6        3.002073766849e-03
    w_006     _C7       -3.002073766849e-03
    w_007     _C1        1.000000000000e+00
    w_007     _C2        2.740101383751e-03
    w_007     _C3       -2.740101383751e-03
    w_007     _C4        7.727400841549e-04
    w_007     _C5       -7.727400841549e-04
    w_007     _C6        3.573445909248e-03
    w_007     _C7       -3.573445909248e-03
    w_008     _C1        1.000000000000e+00
    w_008     _C2        2.877106452939e-03
    w_008     _C3       -2.877106452939e-03
    w_008     _C4        1.115472206286e-04
    w_008     _C5       -1.115472206286e-04
    w_008     _C6        2.156668147929e-03
    w_008     _C7       -2.156668147929e-03
    w_009     _C1        1.000000000000e+00
    w_009     _C2        2.740101383751e-03
    w_009     _C3       -2.740101383751e-03
    w_009     _C4        1.047330304872e-02
    w_009     _C5       -1.047330304872e-02
    w_009     _C6        4.213844862490e-03
    w_009     _C7       -4.213844862490e-03
    w_010     _C1        1.000000000000e+00
    w_010     _C2        2.603096314564e-03
    w_010     _C3       -2.603096314564e-03
    w_010     _C4        1.315013295154e-02
    w_010     _C5       -1.315013295154e-02
    w_010     _C6        1.088530094307e-03
    w_010     _C7       -1.088530094307e-03
    w_011     _C1        1.000000000000e+00
    w_011     _C2        2.877106452939e-03
    w_011     _C3       -2.877106452939e-03
    w_011     _C4        1.072744463117e-02
    w_011     _C5       -1.072744463117e-02
    w_011     _C6        1.075099985187e-03
    w_011     _C7       -1.075099985187e-03
    w_012     _C1        1.000000000000e+00
    w_012     _C2        2.603096314564e-03
    w_012     _C3       -2.603096314564e-03
    w_012     _C4        4.508611233058e-03
    w_012     _C5       -4.508611233058e-03
    w_012     _C6        4.501851577544e-03
    w_012     _C7       -4.501851577544e-03
    w_013     _C1        1.000000000000e+00
    w_013     _C2        2.603096314564e-03
    w_013     _C3       -2.603096314564e-03
    w_013     _C6        1.801165259468e-03
    w_013     _C7       -1.801165259468e-03
    w_014     _C1        1.000000000000e+00
    w_014     _C2        2.603096314564e-03
    w_014     _C3       -2.603096314564e-03
    w_014     _C4        1.481130670136e-02
    w_014     _C5       -1.481130670136e-02
    w_014     _C6        4.085616945638e-03
    w_014     _C7       -4.085616945638e-03
    w_015     _C1        1.000000000000e+00
    w_015     _C2        2.740101383751e-03
    w_015     _C3       -2.740101383751e-03
    w_015     _C4        1.019559800081e-02
    w_015     _C5       -1.019559800081e-02
    w_015     _C6        4.120377228065e-04
    w_015     _C7       -4.120377228065e-04
    w_016     _C1        1.000000000000e+00
    w_016     _C2        2.603096314564e-03
    w_016     _C3       -2.603096314564e-03
    w_016     _C4        7.836217531845e-03
    w_016     _C5       -7.836217531845e-03
    w_016     _C6        1.030069619316e-03
    w_016     _C7       -1.030069619316e-03
    w_017     _C1        1.000000000000e+00
    w_017     _C2        2.740101383751e-03
    w_017     _C3       -2.740101383751e-03
    w_017     _C4        1.161891221942e-03
    w_017     _C5       -1.161891221942e-03
    w_017     _C6        1.021033920901e-03
    w_017     _C7       -1.021033920901e-03
    w_018     _C1        1.000000000000e+00
    w_018     _C2        2.603096314564e-03
    w_018     _C3       -2.603096314564e-03
    w_018     _C4        8.920743727694e-04
    w_018     _C5       -8.920743727694e-04
    w_018     _C6        4.043795980842e-03
    w_018     _C7       -4.043795980842e-03
    w_019     _C1        1.000000000000e+00
    w_019     _C2        2.603096314564e-03
    w_019     _C3       -2.603096314564e-03
    w_019     _C4        5.583125484353e-03
    w_019     _C5       -5.583125484353e-03
    w_019     _C6        2.532316200069e-03
    w_019     _C7       -2.532316200069e-03
    w_020     _C1        1.000000000000e+00
    w_020     _C2        2.877106452939e-03
    w_020     _C3       -2.877106452939e-03
    w_020     _C4        1.914900696174e-02
    w_020     _C5       -1.914900696174e-02
    w_020     _C6        1.880857156964e-03
    w_020     _C7       -1.880857156964e-03
    w_021     _C1        1.000000000000e+00
    w_021     _C2        2.740101383751e-03
    w_021     _C3       -2.740101383751e-03
    w_021     _C4        8.746394309413e-03
    w_021     _C5       -8.746394309413e-03
    w_021     _C6        3.703155088135e-04
    w_021     _C7       -3.703155088135e-04
    w_022     _C1        1.000000000000e+00
    w_022     _C2        2.740101383751e-03
    w_022     _C3       -2.740101383751e-03
    w_022     _C4        4.303416935093e-03
    w_022     _C5       -4.303416935093e-03
    w_022     _C6        2.036044042858e-03
    w_022     _C7       -2.036044042858e-03
    w_023     _C1        1.000000000000e+00
    w_023     _C2        2.740101383751e-03
    w_023     _C3       -2.740101383751e-03
    w_023     _C4        8.530379020870e-04
    w_023     _C5       -8.530379020870e-04
    w_023     _C6        3.109169011998e-03
    w_023     _C7       -3.109169011998e-03
RHS
    RHS       _C1        3.650000000000e+02
    RHS       _C2        1.000000000000e+00
    RHS       _C3       -1.000000000000e+00
    RHS       _C4        1.000000000000e+00
    RHS       _C5       -1.000000000000e+00
    RHS       _C6        1.000000000000e+00
    RHS       _C7       -1.000000000000e+00
BOUNDS
 LO BND       w_000      6.000000000000e+00
 UP BND       w_000      2.400000000000e+01
 LO BND       w_001      5.000000000000e+00
 UP BND       w_001      2.000000000000e+01
 LO BND       w_002      2.000000000000e+01
 UP BND       w_002      8.000000000000e+01
 LO BND       w_003      5.000000000000e-01
 UP BND       w_003      2.000000000000e+00
 LO BND       w_004      2.250000000000e+01
 UP BND       w_004      9.000000000000e+01
 LO BND       w_005      5.500000000000e+00
 UP BND       w_005      2.200000000000e+01
 LO BND       w_006      2.500000000000e+00
 UP BND       w_006      1.000000000000e+01
 LO BND       w_007      1.650000000000e+01
 UP BND       w_007      6.600000000000e+01
 LO BND       w_008      1.250000000000e+01
 UP BND       w_008      5.000000000000e+01
 LO BND       w_009      3.000000000000e+00
 UP BND       w_009      1.200000000000e+01
 LO BND       w_010      2.500000000000e+00
 UP BND       w_010      1.000000000000e+01
 LO BND       w_011      3.000000000000e+00
 UP BND       w_011      1.200000000000e+01
 LO BND       w_012      6.000000000000e+00
 UP BND       w_012      2.400000000000e+01
 LO BND       w_013      1.450000000000e+01
 UP BND       w_013      5.800000000000e+01
 LO BND       w_014      1.500000000000e+00
 UP BND       w_014      6.000000000000e+00
 LO BND       w_015      2.500000000000e+00
 UP BND       w_015      1.000000000000e+01
 LO BND       w_016      2.500000000000e+00
 UP BND       w_016      1.000000000000e+01
 LO BND       w_017      2.050000000000e+01
 UP BND       w_017      8.200000000000e+01
 LO BND       w_018      1.450000000000e+01
 UP BND       w_018      5.800000000000e+01
 LO BND       w_019      4.000000000000e+00
 UP BND       w_019      1.600000000000e+01
 LO BND       w_020      1.500000000000e+00
 UP BND       w_020      6.000000000000e+00
 LO BND       w_021      5.000000000000e-01
 UP BND       w_021      2.000000000000e+00
 LO BND       w_022      7.000000000000e+00
 UP BND       w_022      2.800000000000e+01
 LO BND       w_023      8.000000000000e+00
 UP BND       w_023      3.200000000000e+01
ENDATA
