\* independent_energy_feasibility *\
Minimize
OBJ: t
Subject To
_C1: w_000 + w_001 + w_002 + w_003 + w_004 + w_005 + w_006 + w_007 + w_008
 + w_009 + w_010 + w_011 = 365
_C2: - t + 0.00274010138375 w_000 + 0.00287710645294 w_001
 + 0.00274010138375 w_002 + 0.00274010138375 w_003 + 0.00274010138375 w_004
 + 0.00274010138375 w_005 + 0.00274010138375 w_006 + 0.00274010138375 w_007
 + 0.00287710645294 w_008 + 0.00260309631456 w_009 + 0.00274010138375 w_010
 + 0.00287710645294 w_011 <= 1
_C3: - t - 0.00274010138375 w_000 - 0.00287710645294 w_001
 - 0.00274010138375 w_002 - 0.00274010138375 w_003 - 0.00274010138375 w_004
 - 0.00274010138375 w_005 - 0.00274010138375 w_006 - 0.00274010138375 w_007
 - 0.00287710645294 w_008 - 0.00260309631456 w_009 - 0.00274010138375 w_010
 - 0.00287710645294 w_011 <= -1
_C4: - t + 0.00845068798746 w_000 + 0.00460013456458 w_001
 + 0.000449425066612 w_002 + 0.00020438525194 w_003 + 0.00030177416714 w_004
 + 0.0101955980008 w_005 + 0.00116189122194 w_006 + 0.0104733030487 w_007
 + 0.0051967048769 w_008 + 0.0108391941133 w_009 + 0.000772740084155 w_010
 + 0.0191490069617 w_011 <= 1
_C5: - t - 0.00845068798746 w_000 - 0.00460013456458 w_001
 - 0.000449425066612 w_002 - 0.00020438525194 w_003 - 0.00030177416714 w_004
 - 0.0101955980008 w_005 - 0.00116189122194 w_006 - 0.0104733030487 w_007
 - 0.0051967048769 w_008 - 0.0108391941133 w_009 - 0.000772740084155 w_010
 - 0.0191490069617 w_011 <= -1
_C6: - t + 0.00130425122204 w_000 + 0.00201313385671 w_001
 + 0.00460583617242 w_002 + 0.0018821902928 w_003 + 0.00294637831432 w_004
 + 0.000412037722806 w_005 + 0.0010210339209 w_006 + 0.00421384486249 w_007
 + 0.00369081123784 w_008 + 0.000706018861403 w_009 + 0.00357344590925 w_010
 + 0.00188085715696 w_011 <= 1
_C7: - t - 0.00130425122204 w_000 - 0.00201313385671 w_001
 - 0.00460583617242 w_002 - 0.0018821902928 w_003 - 0.00294637831432 w_004
 - 0.000412037722806 w_005 - 0.0010210339209 w_006 - 0.00421384486249 w_007
 - 0.00369081123784 w_008 - 0.000706018861403 w_009 - 0.00357344590925 w_010
 - 0.00188085715696 w_011 <= -1
Bounds
 4 <= w_000 <= 16
 12.5 <= w_001 <= 50
 29.5 <= w_002 <= 118
 32 <= w_003 <= 128
 27.5 <= w_004 <= 110
 3.5 <= w_005 <= 14
 31.5 <= w_006 <= 126
 6 <= w_007 <= 24
 6.5 <= w_008 <= 26
 5 <= w_009 <= 20
 23 <= w_010 <= 92
 1.5 <= w_011 <= 6
End
