*SENSE:Minimize
NAME          independent_energy_feasibility
ROWS
 N  OBJ
 E  _C1
 L  _C2
 L  _C3
 L  _C4
 L  _C5
 L  _C6
 L  _C7
COLUMNS
    t         _C2       -1.000000000000e+00
    t         _C3       -1.000000000000e+00
    t         _C4       -1.000000000000e+00
    t         _C5       -1.000000000000e+00
    t         _C6       -1.000000000000e+00
    t         _C7       -1.000000000000e+00
    t         OBJ        1.000000000000e+00
    w_000     _C1        1.000000000000e+00
    w_000     _C2        2.740101383751e-03
    w_000     _C3       -2.740101383751e-03
    w_000     _C4        8.450687987457e-03
    w_000     _C5       -8.450687987457e-03
    w_000     _C6        1.304251222041e-03
    w_000     _C7       -1.304251222041e-03
    w_001     _C1        1.000000000000e+00
    w_001     _C2        2.877106452939e-03
    w_001     _C3       -2.877106452939e-03
    w_001     _C4        4.600134564580e-03
    w_001     _C5       -4.600134564580e-03
    w_001     _C6        2.013133856713e-03
    w_001     _C7       -2.013133856713e-03
    w_002     _C1        1.000000000000e+00
    w_002     _C2        2.740101383751e-03
    w_002     _C3       -2.740101383751e-03
    w_002     _C4        4.494250666123e-04
    w_002     _C5       -4.494250666123e-04
    w_002     _C6        4.605836172419e-03
    w_002     _C7       -4.605836172419e-03
    w_003     _C1        1.000000000000e+00
    w_003     _C2        2.740101383751e-03
    w_003     _C3       -2.740101383751e-03
    w_003     _C4        2.043852519405e-04
    w_003     _C5       -2.043852519405e-04
    w_003     _C6        1.882190292796e-03
    w_003     _C7       -1.882190292796e-03
    w_004     _C1        1.000000000000e+00
    w_004     _C2        2.740101383751e-03
    w_004     _C3       -2.740101383751e-03
    w_004     _C4        3.017741671402e-04
    w_004     _C5       -3.017741671402e-04
    w_004     _C6        2.946378314324e-03
    w_004     _C7       -2.946378314324e-03
    w_005     _C1        1.000000000000e+00
    w_005     _C2        2.740101383751e-03
    w_005     _C3       -2.740101383751e-03
    w_005     _C4        1.019559800081e-02
    w_005     _C5       -1.019559800081e-02
    w_005     _C6        4.120377228065e-04
    w_005     _C7       -4.120377228065e-04
    w_006     _C1        1.000000000000e+00
    w_006     _C2        2.740101383751e-03
    w_006     _C3       -2.740101383751e-03
    w_006     _C4        1.161891221942e-03
    w_006     _C5       -1.161891221942e-03
    w_006     _C6        1.021033920901e-03
    w_006     _C7       -1.021033920901e-03
    w_007     _C1        1.000000000000e+00
    w_007     _C2        2.740101383751e-03
    w_007     _C3       -2.740101383751e-03
    w_007     _C4        1.047330304872e-02
    w_007     _C5       -1.047330304872e-02
    w_007     _C6        4.213844862490e-03
    w_007     _C7       -4.213844862490e-03
    w_008     _C1        1.000000000000e+00
    w_008     _C2        2.877106452939e-03
    w_008     _C3       -2.877106452939e-03
    w_008     _C4        5.196704876899e-03
    w_008     _C5       -5.196704876899e-03
    w_008     _C6        3.690811237841e-03
    w_008     _C7       -3.690811237841e-03
    w_009     _C1        1.000000000000e+00
    w_009     _C2        2.603096314564e-03
    w_009     _C3       -2.603096314564e-03
    w_009     _C4        1.083919411330e-02
    w_009     _C5       -1.083919411330e-02
    w_009     _C6        7.060188614032e-04
    w_009     _C7       -7.060188614032e-04
    w_010     _C1        1.000000000000e+00
    w_010     _C2        2.740101383751e-03
    w_010     _C3       -2.740101383751e-03
    w_010     _C4        7.727400841549e-04
    w_010     _C5       -7.727400841549e-04
    w_010     _C6        3.573445909248e-03
    w_010     _C7       -3.573445909248e-03
    w_011     _C1        1.000000000000e+00
    w_011     _C2        2.877106452939e-03
    w_011     _C3       -2.877106452939e-03
    w_011     _C4        1.914900696174e-02
    w_011     _C5       -1.914900696174e-02
    w_011     _C6        1.880857156964e-03
    w_011     _C7       -1.880857156964e-03
RHS
    RHS       _C1        3.650000000000e+02
    RHS       _C2        1.000000000000e+00
    RHS       _C3       -1.000000000000e+00
    RHS       _C4        1.000000000000e+00
    RHS       _C5       -1.000000000000e+00
    RHS       _C6        1.000000000000e+00
    RHS       _C7       -1.000000000000e+00
BOUNDS
 LO BND       w_000      4.000000000000e+00
 UP BND       w_000      1.600000000000e+01
 LO BND       w_001      1.250000000000e+01
 UP BND       w_001      5.000000000000e+01
 LO BND       w_002      2.950000000000e+01
 UP BND       w_002      1.180000000000e+02
 LO BND       w_003      3.200000000000e+01
 UP BND       w_003      1.280000000000e+02
 LO BND       w_004      2.750000000000e+01
 UP BND       w_004      1.100000000000e+02
 LO BND       w_005      3.500000000000e+00
 UP BND       w_005      1.400000000000e+01
 LO BND       w_006      3.150000000000e+01
 UP BND       w_006      1.260000000000e+02
 LO BND       w_007      6.000000000000e+00
 UP BND       w_007      2.400000000000e+01
 LO BND       w_008      6.500000000000e+00
 UP BND       w_008      2.600000000000e+01
 LO BND       w_009      5.000000000000e+00
 UP BND       w_009      2.000000000000e+01
 LO BND       w_010      2.300000000000e+01
 UP BND       w_010      9.200000000000e+01
 LO BND       w_011      1.500000000000e+00
 UP BND       w_011      6.000000000000e+00
ENDATA
