*SENSE:Minimize
NAME          MODEL
ROWS
 N  OBJ
 E  C0000000
 G  C0000001
 G  C0000002
 G  C0000003
 G  C0000004
 G  C0000005
 G  C0000006
 G  C0000007
 G  C0000008
 G  C0000009
 G  C0000010
 G  C0000011
 G  C0000012
 G  C0000013
 G  C0000014
 G  C0000015
 G  C0000016
 G  C0000017
 G  C0000018
 G  C0000019
 G  C0000020
 G  C0000021
 G  C0000022
 G  C0000023
 G  C0000024
 G  C0000025
 G  C0000026
 G  C0000027
 G  C0000028
 G  C0000029
 G  C0000030
 G  C0000031
 G  C0000032
 G  C0000033
 G  C0000034
 G  C0000035
 G  C0000036
 G  C0000037
 G  C0000038
 G  C0000039
 G  C0000040
 G  C0000041
 G  C0000042
 G  C0000043
 G  C0000044
 G  C0000045
 G  C0000046
 G  C0000047
 G  C0000048
 G  C0000049
 G  C0000050
 G  C0000051
 G  C0000052
 G  C0000053
 G  C0000054
 G  C0000055
 G  C0000056
 G  C0000057
 G  C0000058
 G  C0000059
 G  C0000060
 G  C0000061
 G  C0000062
 G  C0000063
 G  C0000064
 G  C0000065
 G  C0000066
 G  C0000067
 G  C0000068
 G  C0000069
 G  C0000070
 G  C0000071
 G  C0000072
 G  C0000073
 G  C0000074
 G  C0000075
 G  C0000076
 G  C0000077
 G  C0000078
 G  C0000079
 G  C0000080
 G  C0000081
 G  C0000082
 G  C0000083
 G  C0000084
 G  C0000085
 G  C0000086
 G  C0000087
 G  C0000088
 G  C0000089
 G  C0000090
 G  C0000091
 G  C0000092
 G  C0000093
 G  C0000094
 G  C0000095
 G  C0000096
 L  C0000097
 L  C0000098
 L  C0000099
 L  C0000100
 L  C0000101
 L  C0000102
 L  C0000103
 L  C0000104
 G  C0000105
 L  C0000106
 G  C0000107
 L  C0000108
 G  C0000109
 L  C0000110
 G  C0000111
 L  C0000112
 G  C0000113
 L  C0000114
 G  C0000115
 L  C0000116
 G  C0000117
 L  C0000118
 G  C0000119
 L  C0000120
 G  C0000121
 L  C0000122
 G  C0000123
 L  C0000124
 G  C0000125
 L  C0000126
 G  C0000127
 L  C0000128
 G  C0000129
 L  C0000130
 G  C0000131
 L  C0000132
 G  C0000133
 L  C0000134
 G  C0000135
 L  C0000136
 G  C0000137
 L  C0000138
 G  C0000139
 L  C0000140
 G  C0000141
 L  C0000142
 G  C0000143
 L  C0000144
COLUMNS
    X0000000  C0000001   1.000000000000e+00
    X0000000  C0000002   1.000000000000e+00
    X0000000  C0000104   1.000000000000e+00
    X0000001  C0000003   1.000000000000e+00
    X0000001  C0000004   1.000000000000e+00
    X0000001  C0000104   1.000000000000e+00
    X0000002  C0000005   1.000000000000e+00
    X0000002  C0000006   1.000000000000e+00
    X0000002  C0000104   1.000000000000e+00
    X0000003  C0000007   1.000000000000e+00
    X0000003  C0000008   1.000000000000e+00
    X0000003  C0000104   1.000000000000e+00
    X0000004  C0000009   1.000000000000e+00
    X0000004  C0000010   1.000000000000e+00
    X0000004  C0000104   1.000000000000e+00
    X0000005  C0000011   1.000000000000e+00
    X0000005  C0000012   1.000000000000e+00
    X0000005  C0000104   1.000000000000e+00
    X0000006  C0000013   1.000000000000e+00
    X0000006  C0000014   1.000000000000e+00
    X0000006  C0000104   1.000000000000e+00
    X0000007  C0000015   1.000000000000e+00
    X0000007  C0000016   1.000000000000e+00
    X0000007  C0000104   1.000000000000e+00
    X0000008  C0000017   1.000000000000e+00
    X0000008  C0000018   1.000000000000e+00
    X0000008  C0000104   1.000000000000e+00
    X0000009  C0000019   1.000000000000e+00
    X0000009  C0000020   1.000000000000e+00
    X0000009  C0000104   1.000000000000e+00
    X0000010  C0000021   1.000000000000e+00
    X0000010  C0000022   1.000000000000e+00
    X0000010  C0000104   1.000000000000e+00
    X0000011  C0000023   1.000000000000e+00
    X0000011  C0000024   1.000000000000e+00
    X0000011  C0000104   1.000000000000e+00
    X0000012  C0000025   1.000000000000e+00
    X0000012  C0000026   1.000000000000e+00
    X0000012  C0000104   1.000000000000e+00
    X0000013  C0000027   1.000000000000e+00
    X0000013  C0000028   1.000000000000e+00
    X0000013  C0000104   1.000000000000e+00
    X0000014  C0000029   1.000000000000e+00
    X0000014  C0000030   1.000000000000e+00
    X0000014  C0000104   1.000000000000e+00
    X0000015  C0000031   1.000000000000e+00
    X0000015  C0000032   1.000000000000e+00
    X0000015  C0000104   1.000000000000e+00
    X0000016  C0000033   1.000000000000e+00
    X0000016  C0000034   1.000000000000e+00
    X0000016  C0000104   1.000000000000e+00
    X0000017  C0000035   1.000000000000e+00
    X0000017  C0000036   1.000000000000e+00
    X0000017  C0000104   1.000000000000e+00
    X0000018  C0000037   1.000000000000e+00
    X0000018  C0000038   1.000000000000e+00
    X0000018  C0000104   1.000000000000e+00
    X0000019  C0000039   1.000000000000e+00
    X0000019  C0000040   1.000000000000e+00
    X0000019  C0000104   1.000000000000e+00
    X0000020  C0000041   1.000000000000e+00
    X0000020  C0000042   1.000000000000e+00
    X0000020  C0000104   1.000000000000e+00
    X0000021  C0000043   1.000000000000e+00
    X0000021  C0000044   1.000000000000e+00
    X0000021  C0000104   1.000000000000e+00
    X0000022  C0000045   1.000000000000e+00
    X0000022  C0000046   1.000000000000e+00
    X0000022  C0000104   1.000000000000e+00
    X0000023  C0000047   1.000000000000e+00
    X0000023  C0000048   1.000000000000e+00
    X0000023  C0000104   1.000000000000e+00
    X0000024  C0000049   1.000000000000e+00
    X0000024  C0000050   1.000000000000e+00
    X0000024  C0000104   1.000000000000e+00
    X0000025  C0000051   1.000000000000e+00
    X0000025  C0000052   1.000000000000e+00
    X0000025  C0000104   1.000000000000e+00
    X0000026  C0000053   1.000000000000e+00
    X0000026  C0000054   1.000000000000e+00
    X0000026  C0000104   1.000000000000e+00
    X0000027  C0000055   1.000000000000e+00
    X0000027  C0000056   1.000000000000e+00
    X0000027  C0000104   1.000000000000e+00
    X0000028  C0000057   1.000000000000e+00
    X0000028  C0000058   1.000000000000e+00
    X0000028  C0000104   1.000000000000e+00
    X0000029  C0000059   1.000000000000e+00
    X0000029  C0000060   1.000000000000e+00
    X0000029  C0000104   1.000000000000e+00
    X0000030  C0000061   1.000000000000e+00
    X0000030  C0000062   1.000000000000e+00
    X0000030  C0000104   1.000000000000e+00
    X0000031  C0000063   1.000000000000e+00
    X0000031  C0000064   1.000000000000e+00
    X0000031  C0000104   1.000000000000e+00
    X0000032  C0000065   1.000000000000e+00
    X0000032  C0000066   1.000000000000e+00
    X0000032  C0000104   1.000000000000e+00
    X0000033  C0000067   1.000000000000e+00
    X0000033  C0000068   1.000000000000e+00
    X0000033  C0000104   1.000000000000e+00
    X0000034  C0000069   1.000000000000e+00
    X0000034  C0000070   1.000000000000e+00
    X0000034  C0000104   1.000000000000e+00
    X0000035  C0000071   1.000000000000e+00
    X0000035  C0000072   1.000000000000e+00
    X0000035  C0000104   1.000000000000e+00
    X0000036  C0000073   1.000000000000e+00
    X0000036  C0000074   1.000000000000e+00
    X0000036  C0000104   1.000000000000e+00
    X0000037  C0000075   1.000000000000e+00
    X0000037  C0000076   1.000000000000e+00
    X0000037  C0000104   1.000000000000e+00
    X0000038  C0000077   1.000000000000e+00
    X0000038  C0000078   1.000000000000e+00
    X0000038  C0000104   1.000000000000e+00
    X0000039  C0000079   1.000000000000e+00
    X0000039  C0000080   1.000000000000e+00
    X0000039  C0000104   1.000000000000e+00
    X0000040  C0000081   1.000000000000e+00
    X0000040  C0000082   1.000000000000e+00
    X0000040  C0000104   1.000000000000e+00
    X0000041  C0000083   1.000000000000e+00
    X0000041  C0000084   1.000000000000e+00
    X0000041  C0000104   1.000000000000e+00
    X0000042  C0000085   1.000000000000e+00
    X0000042  C0000086   1.000000000000e+00
    X0000042  C0000104   1.000000000000e+00
    X0000043  C0000087   1.000000000000e+00
    X0000043  C0000088   1.000000000000e+00
    X0000043  C0000104   1.000000000000e+00
    X0000044  C0000089   1.000000000000e+00
    X0000044  C0000090   1.000000000000e+00
    X0000044  C0000104   1.000000000000e+00
    X0000045  C0000091   1.000000000000e+00
    X0000045  C0000092   1.000000000000e+00
    X0000045  C0000104   1.000000000000e+00
    X0000046  C0000093   1.000000000000e+00
    X0000046  C0000094   1.000000000000e+00
    X0000046  C0000104   1.000000000000e+00
    X0000047  C0000095   1.000000000000e+00
    X0000047  C0000096   1.000000000000e+00
    X0000047  C0000104   1.000000000000e+00
    X0000048  C0000000   1.000000000000e+00
    X0000048  C0000001  -5.263157894737e-02
    X0000048  C0000002   5.263157894737e-02
    X0000048  C0000097   2.740101383751e-03
    X0000048  C0000098  -2.740101383751e-03
    X0000048  C0000099   8.530379020870e-04
    X0000048  C0000100  -8.530379020870e-04
    X0000048  C0000101   3.109169011998e-03
    X0000048  C0000102  -3.109169011998e-03
    X0000049  C0000000   1.000000000000e+00
    X0000049  C0000003  -2.000000000000e-01
    X0000049  C0000004   2.000000000000e-01
    X0000049  C0000097   2.603096314564e-03
    X0000049  C0000098  -2.603096314564e-03
    X0000049  C0000099   5.583125484353e-03
    X0000049  C0000100  -5.583125484353e-03
    X0000049  C0000101   2.532316200069e-03
    X0000049  C0000102  -2.532316200069e-03
    X0000050  C0000000   1.000000000000e+00
    X0000050  C0000005  -7.692307692308e-02
    X0000050  C0000006   7.692307692308e-02
    X0000050  C0000097   2.740101383751e-03
    X0000050  C0000098  -2.740101383751e-03
    X0000050  C0000099   1.591292399447e-03
    X0000050  C0000100  -1.591292399447e-03
    X0000050  C0000101   4.797067101170e-03
    X0000050  C0000102  -4.797067101170e-03
    X0000050  C0000141   1.000000000000e+00
    X0000050  C0000142   1.000000000000e+00
    X0000051  C0000000   1.000000000000e+00
    X0000051  C0000007  -7.692307692308e-02
    X0000051  C0000008   7.692307692308e-02
    X0000051  C0000097   2.740101383751e-03
    X0000051  C0000098  -2.740101383751e-03
    X0000051  C0000099   3.268040285233e-03
    X0000051  C0000100  -3.268040285233e-03
    X0000051  C0000101   4.491680244902e-04
    X0000051  C0000102  -4.491680244902e-04
    X0000051  C0000143   1.000000000000e+00
    X0000051  C0000144   1.000000000000e+00
    X0000052  C0000000   1.000000000000e+00
    X0000052  C0000009  -1.000000000000e+00
    X0000052  C0000010   1.000000000000e+00
    X0000052  C0000097   2.877106452939e-03
    X0000052  C0000098  -2.877106452939e-03
    X0000052  C0000099   1.571733711805e-02
    X0000052  C0000100  -1.571733711805e-02
    X0000052  C0000101   1.279316644448e-03
    X0000052  C0000102  -1.279316644448e-03
    X0000052  C0000135   1.000000000000e+00
    X0000052  C0000136   1.000000000000e+00
    X0000053  C0000000   1.000000000000e+00
    X0000053  C0000011  -5.000000000000e-01
    X0000053  C0000012   5.000000000000e-01
    X0000053  C0000097   2.740101383751e-03
    X0000053  C0000098  -2.740101383751e-03
    X0000053  C0000099   1.010720972263e-02
    X0000053  C0000100  -1.010720972263e-02
    X0000053  C0000101   2.110255270824e-03
    X0000053  C0000102  -2.110255270824e-03
    X0000053  OBJ        1.000000000000e+00
    X0000054  C0000000   1.000000000000e+00
    X0000054  C0000013  -2.000000000000e-01
    X0000054  C0000014   2.000000000000e-01
    X0000054  C0000097   2.740101383751e-03
    X0000054  C0000098  -2.740101383751e-03
    X0000054  C0000099   1.018133856462e-02
    X0000054  C0000100  -1.018133856462e-02
    X0000054  C0000101   5.174591418555e-03
    X0000054  C0000102  -5.174591418555e-03
    X0000055  C0000000   1.000000000000e+00
    X0000055  C0000015  -5.555555555556e-02
    X0000055  C0000016   5.555555555556e-02
    X0000055  C0000097   2.877106452939e-03
    X0000055  C0000098  -2.877106452939e-03
    X0000055  C0000099   5.501512966631e-04
    X0000055  C0000100  -5.501512966631e-04
    X0000055  C0000101   2.595171085765e-03
    X0000055  C0000102  -2.595171085765e-03
    X0000056  C0000000   1.000000000000e+00
    X0000056  C0000017  -5.000000000000e-01
    X0000056  C0000018   5.000000000000e-01
    X0000056  C0000097   2.877106452939e-03
    X0000056  C0000098  -2.877106452939e-03
    X0000056  C0000099   8.018657410371e-03
    X0000056  C0000100  -8.018657410371e-03
    X0000056  C0000101   3.119044092233e-04
    X0000056  C0000102  -3.119044092233e-04
    X0000057  C0000000   1.000000000000e+00
    X0000057  C0000019  -5.000000000000e-01
    X0000057  C0000020   5.000000000000e-01
    X0000057  C0000097   2.740101383751e-03
    X0000057  C0000098  -2.740101383751e-03
    X0000057  C0000099   1.097400140713e-02
    X0000057  C0000100  -1.097400140713e-02
    X0000057  C0000101   2.466449414901e-03
    X0000057  C0000102  -2.466449414901e-03
    X0000058  C0000000   1.000000000000e+00
    X0000058  C0000021  -1.111111111111e-01
    X0000058  C0000022   1.111111111111e-01
    X0000058  C0000097   2.877106452939e-03
    X0000058  C0000098  -2.877106452939e-03
    X0000058  C0000099   5.196704876899e-03
    X0000058  C0000100  -5.196704876899e-03
    X0000058  C0000101   3.690811237841e-03
    X0000058  C0000102  -3.690811237841e-03
    X0000058  C0000119   1.000000000000e+00
    X0000058  C0000120   1.000000000000e+00
    X0000059  C0000000   1.000000000000e+00
    X0000059  C0000023  -3.333333333333e-02
    X0000059  C0000024   3.333333333333e-02
    X0000059  C0000097   2.603096314564e-03
    X0000059  C0000098  -2.603096314564e-03
    X0000059  C0000099   2.098463126059e-04
    X0000059  C0000100  -2.098463126059e-04
    X0000059  C0000101   3.115834691157e-03
    X0000059  C0000102  -3.115834691157e-03
    X0000059  C0000113   1.000000000000e+00
    X0000059  C0000114   1.000000000000e+00
    X0000060  C0000000   1.000000000000e+00
    X0000060  C0000025  -1.000000000000e+00
    X0000060  C0000026   1.000000000000e+00
    X0000060  C0000097   2.877106452939e-03
    X0000060  C0000098  -2.877106452939e-03
    X0000060  C0000099   1.326997289392e-02
    X0000060  C0000100  -1.326997289392e-02
    X0000060  C0000101   2.084333185207e-03
    X0000060  C0000102  -2.084333185207e-03
    X0000061  C0000000   1.000000000000e+00
    X0000061  C0000027  -1.000000000000e+00
    X0000061  C0000028   1.000000000000e+00
    X0000061  C0000097   2.877106452939e-03
    X0000061  C0000098  -2.877106452939e-03
    X0000061  C0000099   1.220547058718e-02
    X0000061  C0000100  -1.220547058718e-02
    X0000061  C0000101   1.440774206290e-03
    X0000061  C0000102  -1.440774206290e-03
    X0000062  C0000000   1.000000000000e+00
    X0000062  C0000029  -8.333333333333e-02
    X0000062  C0000030   8.333333333333e-02
    X0000062  C0000097   2.740101383751e-03
    X0000062  C0000098  -2.740101383751e-03
    X0000062  C0000099   2.989930714310e-03
    X0000062  C0000100  -2.989930714310e-03
    X0000062  C0000101   1.906779242581e-03
    X0000062  C0000102  -1.906779242581e-03
    X0000063  C0000000   1.000000000000e+00
    X0000063  C0000031  -6.250000000000e-02
    X0000063  C0000032   6.250000000000e-02
    X0000063  C0000097   2.740101383751e-03
    X0000063  C0000098  -2.740101383751e-03
    X0000063  C0000099   3.503169286105e-04
    X0000063  C0000100  -3.503169286105e-04
    X0000063  C0000101   4.175332049573e-03
    X0000063  C0000102  -4.175332049573e-03
    X0000064  C0000000   1.000000000000e+00
    X0000064  C0000033  -4.545454545455e-02
    X0000064  C0000034   4.545454545455e-02
    X0000064  C0000097   2.740101383751e-03
    X0000064  C0000098  -2.740101383751e-03
    X0000064  C0000099   2.754801713438e-04
    X0000064  C0000100  -2.754801713438e-04
    X0000064  C0000101   1.144966177850e-03
    X0000064  C0000102  -1.144966177850e-03
    X0000065  C0000000   1.000000000000e+00
    X0000065  C0000035  -1.000000000000e+00
    X0000065  C0000036   1.000000000000e+00
    X0000065  C0000097   2.740101383751e-03
    X0000065  C0000098  -2.740101383751e-03
    X0000065  C0000099   2.373821940499e-02
    X0000065  C0000100  -2.373821940499e-02
    X0000065  C0000101   4.145064928653e-04
    X0000065  C0000102  -4.145064928653e-04
    X0000065  C0000107   1.000000000000e+00
    X0000065  C0000108   1.000000000000e+00
    X0000066  C0000000   1.000000000000e+00
    X0000066  C0000037  -3.333333333333e-01
    X0000066  C0000038   3.333333333333e-01
    X0000066  C0000097   2.740101383751e-03
    X0000066  C0000098  -2.740101383751e-03
    X0000066  C0000099   1.019559800081e-02
    X0000066  C0000100  -1.019559800081e-02
    X0000066  C0000101   4.120377228065e-04
    X0000066  C0000102  -4.120377228065e-04
    X0000066  C0000111   1.000000000000e+00
    X0000066  C0000112   1.000000000000e+00
    X0000067  C0000000   1.000000000000e+00
    X0000067  C0000039  -5.000000000000e-01
    X0000067  C0000040   5.000000000000e-01
    X0000067  C0000097   2.740101383751e-03
    X0000067  C0000098  -2.740101383751e-03
    X0000067  C0000099   8.450687987457e-03
    X0000067  C0000100  -8.450687987457e-03
    X0000067  C0000101   1.304251222041e-03
    X0000067  C0000102  -1.304251222041e-03
    X0000067  C0000109   1.000000000000e+00
    X0000067  C0000110   1.000000000000e+00
    X0000068  C0000000   1.000000000000e+00
    X0000068  C0000041  -5.000000000000e-02
    X0000068  C0000042   5.000000000000e-02
    X0000068  C0000097   2.877106452939e-03
    X0000068  C0000098  -2.877106452939e-03
    X0000068  C0000099   1.885886283120e-03
    X0000068  C0000100  -1.885886283120e-03
    X0000068  C0000101   3.572409025823e-03
    X0000068  C0000102  -3.572409025823e-03
    X0000069  C0000000   1.000000000000e+00
    X0000069  C0000043  -8.333333333333e-02
    X0000069  C0000044   8.333333333333e-02
    X0000069  C0000097   2.877106452939e-03
    X0000069  C0000098  -2.877106452939e-03
    X0000069  C0000099   7.414906814585e-04
    X0000069  C0000100  -7.414906814585e-04
    X0000069  C0000101   1.275959117168e-03
    X0000069  C0000102  -1.275959117168e-03
    X0000069  C0000115   1.000000000000e+00
    X0000069  C0000116   1.000000000000e+00
    X0000070  C0000000   1.000000000000e+00
    X0000070  C0000045  -3.333333333333e-01
    X0000070  C0000046   3.333333333333e-01
    X0000070  C0000097   2.603096314564e-03
    X0000070  C0000098  -2.603096314564e-03
    X0000070  C0000099   1.315013295154e-02
    X0000070  C0000100  -1.315013295154e-02
    X0000070  C0000101   1.088530094307e-03
    X0000070  C0000102  -1.088530094307e-03
    X0000070  C0000105   1.000000000000e+00
    X0000070  C0000106   1.000000000000e+00
    X0000071  C0000000   1.000000000000e+00
    X0000071  C0000047  -3.333333333333e-01
    X0000071  C0000048   3.333333333333e-01
    X0000071  C0000097   2.877106452939e-03
    X0000071  C0000098  -2.877106452939e-03
    X0000071  C0000099   1.072744463117e-02
    X0000071  C0000100  -1.072744463117e-02
    X0000071  C0000101   1.075099985187e-03
    X0000071  C0000102  -1.075099985187e-03
    X0000072  C0000000   1.000000000000e+00
    X0000072  C0000049  -1.666666666667e-01
    X0000072  C0000050   1.666666666667e-01
    X0000072  C0000097   2.740101383751e-03
    X0000072  C0000098  -2.740101383751e-03
    X0000072  C0000099   4.093772883993e-03
    X0000072  C0000100  -4.093772883993e-03
    X0000072  C0000101   3.749962968449e-03
    X0000072  C0000102  -3.749962968449e-03
    X0000072  C0000139   1.000000000000e+00
    X0000072  C0000140   1.000000000000e+00
    X0000073  C0000000   1.000000000000e+00
    X0000073  C0000051  -1.000000000000e+00
    X0000073  C0000052   1.000000000000e+00
    X0000073  C0000097   2.740101383751e-03
    X0000073  C0000098  -2.740101383751e-03
    X0000073  C0000099   1.499627484871e-02
    X0000073  C0000100  -1.499627484871e-02
    X0000073  C0000101   3.140621142547e-03
    X0000073  C0000102  -3.140621142547e-03
    X0000073  C0000133   1.000000000000e+00
    X0000073  C0000134   1.000000000000e+00
    X0000074  C0000000   1.000000000000e+00
    X0000074  C0000053  -3.333333333333e-02
    X0000074  C0000054   3.333333333333e-02
    X0000074  C0000097   2.740101383751e-03
    X0000074  C0000098  -2.740101383751e-03
    X0000074  C0000099   5.045413270317e-04
    X0000074  C0000100  -5.045413270317e-04
    X0000074  C0000101   2.349429714116e-03
    X0000074  C0000102  -2.349429714116e-03
    X0000075  C0000000   1.000000000000e+00
    X0000075  C0000055  -1.000000000000e+00
    X0000075  C0000056   1.000000000000e+00
    X0000075  C0000097   2.740101383751e-03
    X0000075  C0000098  -2.740101383751e-03
    X0000075  C0000099   8.746394309413e-03
    X0000075  C0000100  -8.746394309413e-03
    X0000075  C0000101   3.703155088135e-04
    X0000075  C0000102  -3.703155088135e-04
    X0000076  C0000000   1.000000000000e+00
    X0000076  C0000057  -1.250000000000e-01
    X0000076  C0000058   1.250000000000e-01
    X0000076  C0000097   2.603096314564e-03
    X0000076  C0000098  -2.603096314564e-03
    X0000076  C0000099   3.925996964662e-03
    X0000076  C0000100  -3.925996964662e-03
    X0000076  C0000101   9.445514244803e-04
    X0000076  C0000102  -9.445514244803e-04
    X0000076  C0000129   1.000000000000e+00
    X0000076  C0000130   1.000000000000e+00
    X0000077  C0000000   1.000000000000e+00
    X0000077  C0000059  -5.000000000000e-01
    X0000077  C0000060   5.000000000000e-01
    X0000077  C0000097   2.603096314564e-03
    X0000077  C0000098  -2.603096314564e-03
    X0000077  C0000099   3.580129789186e-03
    X0000077  C0000100  -3.580129789186e-03
    X0000077  C0000101   5.880116525947e-04
    X0000077  C0000102  -5.880116525947e-04
    X0000077  C0000117   1.000000000000e+00
    X0000077  C0000118   1.000000000000e+00
    X0000078  C0000000   1.000000000000e+00
    X0000078  C0000061  -1.000000000000e+00
    X0000078  C0000062   1.000000000000e+00
    X0000078  C0000097   2.740101383751e-03
    X0000078  C0000098  -2.740101383751e-03
    X0000078  C0000099   1.173986460008e-02
    X0000078  C0000100  -1.173986460008e-02
    X0000078  C0000101   3.864810151582e-03
    X0000078  C0000102  -3.864810151582e-03
    X0000078  C0000123   1.000000000000e+00
    X0000078  C0000124   1.000000000000e+00
    X0000079  C0000000   1.000000000000e+00
    X0000079  C0000063  -1.000000000000e+00
    X0000079  C0000064   1.000000000000e+00
    X0000079  C0000097   2.603096314564e-03
    X0000079  C0000098  -2.603096314564e-03
    X0000079  C0000099   7.657721752689e-03
    X0000079  C0000100  -7.657721752689e-03
    X0000079  C0000101   2.123043499728e-03
    X0000079  C0000102  -2.123043499728e-03
    X0000080  C0000000   1.000000000000e+00
    X0000080  C0000065  -1.000000000000e+00
    X0000080  C0000066   1.000000000000e+00
    X0000080  C0000097   2.603096314564e-03
    X0000080  C0000098  -2.603096314564e-03
    X0000080  C0000099   1.574919330527e-02
    X0000080  C0000100  -1.574919330527e-02
    X0000080  C0000101   3.295314274428e-04
    X0000080  C0000102  -3.295314274428e-04
    X0000081  C0000000   1.000000000000e+00
    X0000081  C0000067  -2.500000000000e-01
    X0000081  C0000068   2.500000000000e-01
    X0000081  C0000097   2.603096314564e-03
    X0000081  C0000098  -2.603096314564e-03
    X0000081  C0000099   5.904620148341e-03
    X0000081  C0000100  -5.904620148341e-03
    X0000081  C0000101   5.476423245939e-03
    X0000081  C0000102  -5.476423245939e-03
    X0000082  C0000000   1.000000000000e+00
    X0000082  C0000069  -1.000000000000e+00
    X0000082  C0000070   1.000000000000e+00
    X0000082  C0000097   2.877106452939e-03
    X0000082  C0000098  -2.877106452939e-03
    X0000082  C0000099   1.192705762400e-02
    X0000082  C0000100  -1.192705762400e-02
    X0000082  C0000101   1.165851972547e-03
    X0000082  C0000102  -1.165851972547e-03
    X0000082  C0000127   1.000000000000e+00
    X0000082  C0000128   1.000000000000e+00
    X0000083  C0000000   1.000000000000e+00
    X0000083  C0000071  -5.000000000000e-01
    X0000083  C0000072   5.000000000000e-01
    X0000083  C0000097   2.740101383751e-03
    X0000083  C0000098  -2.740101383751e-03
    X0000083  C0000099   9.089632085309e-03
    X0000083  C0000100  -9.089632085309e-03
    X0000083  C0000101   3.916061818002e-03
    X0000083  C0000102  -3.916061818002e-03
    X0000083  C0000125   1.000000000000e+00
    X0000083  C0000126   1.000000000000e+00
    X0000084  C0000000   1.000000000000e+00
    X0000084  C0000073  -4.545454545455e-02
    X0000084  C0000074   4.545454545455e-02
    X0000084  C0000097   2.603096314564e-03
    X0000084  C0000098  -2.603096314564e-03
    X0000084  C0000099   7.205566155744e-04
    X0000084  C0000100  -7.205566155744e-04
    X0000084  C0000101   1.888855971955e-03
    X0000084  C0000102  -1.888855971955e-03
    X0000085  C0000000   1.000000000000e+00
    X0000085  C0000075  -2.500000000000e-01
    X0000085  C0000076   2.500000000000e-01
    X0000085  C0000097   2.877106452939e-03
    X0000085  C0000098  -2.877106452939e-03
    X0000085  C0000099   5.003241746289e-03
    X0000085  C0000100  -5.003241746289e-03
    X0000085  C0000101   3.002073766849e-03
    X0000085  C0000102  -3.002073766849e-03
    X0000086  C0000000   1.000000000000e+00
    X0000086  C0000077  -5.000000000000e-01
    X0000086  C0000078   5.000000000000e-01
    X0000086  C0000097   2.603096314564e-03
    X0000086  C0000098  -2.603096314564e-03
    X0000086  C0000099   7.836217531845e-03
    X0000086  C0000100  -7.836217531845e-03
    X0000086  C0000101   1.030069619316e-03
    X0000086  C0000102  -1.030069619316e-03
    X0000086  C0000137   1.000000000000e+00
    X0000086  C0000138   1.000000000000e+00
    X0000087  C0000000   1.000000000000e+00
    X0000087  C0000079  -5.000000000000e-02
    X0000087  C0000080   5.000000000000e-02
    X0000087  C0000097   2.603096314564e-03
    X0000087  C0000098  -2.603096314564e-03
    X0000087  C0000099   4.126134724973e-04
    X0000087  C0000100  -4.126134724973e-04
    X0000087  C0000101   4.671653582185e-03
    X0000087  C0000102  -4.671653582185e-03
    X0000088  C0000000   1.000000000000e+00
    X0000088  C0000081  -1.000000000000e+00
    X0000088  C0000082   1.000000000000e+00
    X0000088  C0000097   2.603096314564e-03
    X0000088  C0000098  -2.603096314564e-03
    X0000088  C0000099   9.198347644852e-03
    X0000088  C0000100  -9.198347644852e-03
    X0000088  C0000101   1.541055646077e-03
    X0000088  C0000102  -1.541055646077e-03
    X0000089  C0000000   1.000000000000e+00
    X0000089  C0000083  -1.000000000000e+00
    X0000089  C0000084   1.000000000000e+00
    X0000089  C0000097   2.603096314564e-03
    X0000089  C0000098  -2.603096314564e-03
    X0000089  C0000099   1.481130670136e-02
    X0000089  C0000100  -1.481130670136e-02
    X0000089  C0000101   4.085616945638e-03
    X0000089  C0000102  -4.085616945638e-03
    X0000090  C0000000   1.000000000000e+00
    X0000090  C0000085  -1.000000000000e+00
    X0000090  C0000086   1.000000000000e+00
    X0000090  C0000097   2.877106452939e-03
    X0000090  C0000098  -2.877106452939e-03
    X0000090  C0000099   1.914900696174e-02
    X0000090  C0000100  -1.914900696174e-02
    X0000090  C0000101   1.880857156964e-03
    X0000090  C0000102  -1.880857156964e-03
    X0000091  C0000000   1.000000000000e+00
    X0000091  C0000087  -4.761904761905e-02
    X0000091  C0000088   4.761904761905e-02
    X0000091  C0000097   2.877106452939e-03
    X0000091  C0000098  -2.877106452939e-03
    X0000091  C0000099   9.101767775677e-05
    X0000091  C0000100  -9.101767775677e-05
    X0000091  C0000101   4.894534143090e-03
    X0000091  C0000102  -4.894534143090e-03
    X0000092  C0000000   1.000000000000e+00
    X0000092  C0000089  -7.142857142857e-02
    X0000092  C0000090   7.142857142857e-02
    X0000092  C0000097   2.740101383751e-03
    X0000092  C0000098  -2.740101383751e-03
    X0000092  C0000099   2.676931033580e-04
    X0000092  C0000100  -2.676931033580e-04
    X0000092  C0000101   6.852811929097e-04
    X0000092  C0000102  -6.852811929097e-04
    X0000092  C0000131   1.000000000000e+00
    X0000092  C0000132   1.000000000000e+00
    X0000093  C0000000   1.000000000000e+00
    X0000093  C0000091  -1.000000000000e+00
    X0000093  C0000092   1.000000000000e+00
    X0000093  C0000097   2.877106452939e-03
    X0000093  C0000098  -2.877106452939e-03
    X0000093  C0000099   6.849484774209e-03
    X0000093  C0000100  -6.849484774209e-03
    X0000093  C0000101   2.343455290574e-03
    X0000093  C0000102  -2.343455290574e-03
    X0000094  C0000000   1.000000000000e+00
    X0000094  C0000093  -1.000000000000e+00
    X0000094  C0000094   1.000000000000e+00
    X0000094  C0000097   2.603096314564e-03
    X0000094  C0000098  -2.603096314564e-03
    X0000094  C0000099   1.016444972886e-02
    X0000094  C0000100  -1.016444972886e-02
    X0000094  C0000101   2.077914383054e-03
    X0000094  C0000102  -2.077914383054e-03
    X0000094  C0000121   1.000000000000e+00
    X0000094  C0000122   1.000000000000e+00
    X0000095  C0000000   1.000000000000e+00
    X0000095  C0000095  -2.500000000000e-01
    X0000095  C0000096   2.500000000000e-01
    X0000095  C0000097   2.603096314564e-03
    X0000095  C0000098  -2.603096314564e-03
    X0000095  C0000099   5.721067831531e-03
    X0000095  C0000100  -5.721067831531e-03
    X0000095  C0000101   3.327902039204e-03
    X0000095  C0000102  -3.327902039204e-03
    X0000096  C0000097  -1.000000000000e+00
    X0000096  C0000098  -1.000000000000e+00
    X0000096  C0000099  -1.000000000000e+00
    X0000096  C0000100  -1.000000000000e+00
    X0000096  C0000101  -1.000000000000e+00
    X0000096  C0000102  -1.000000000000e+00
    X0000096  C0000103   1.000000000000e+00
RHS
    RHS       C0000000   3.650000000000e+02
    RHS       C0000001  -1.000000000000e+00
    RHS       C0000002   1.000000000000e+00
    RHS       C0000003  -1.000000000000e+00
    RHS       C0000004   1.000000000000e+00
    RHS       C0000005  -1.000000000000e+00
    RHS       C0000006   1.000000000000e+00
    RHS       C0000007  -1.000000000000e+00
    RHS       C0000008   1.000000000000e+00
    RHS       C0000009  -1.000000000000e+00
    RHS       C0000010   1.000000000000e+00
    RHS       C0000011  -1.000000000000e+00
    RHS       C0000012   1.000000000000e+00
    RHS       C0000013  -1.000000000000e+00
    RHS       C0000014   1.000000000000e+00
    RHS       C0000015  -1.000000000000e+00
    RHS       C0000016   1.000000000000e+00
    RHS       C0000017  -1.000000000000e+00
    RHS       C0000018   1.000000000000e+00
    RHS       C0000019  -1.000000000000e+00
    RHS       C0000020   1.000000000000e+00
    RHS       C0000021  -1.000000000000e+00
    RHS       C0000022   1.000000000000e+00
    RHS       C0000023  -1.000000000000e+00
    RHS       C0000024   1.000000000000e+00
    RHS       C0000025  -1.000000000000e+00
    RHS       C0000026   1.000000000000e+00
    RHS       C0000027  -1.000000000000e+00
    RHS       C0000028   1.000000000000e+00
    RHS       C0000029  -1.000000000000e+00
    RHS       C0000030   1.000000000000e+00
    RHS       C0000031  -1.000000000000e+00
    RHS       C0000032   1.000000000000e+00
    RHS       C0000033  -1.000000000000e+00
    RHS       C0000034   1.000000000000e+00
    RHS       C0000035  -1.000000000000e+00
    RHS       C0000036   1.000000000000e+00
    RHS       C0000037  -1.000000000000e+00
    RHS       C0000038   1.000000000000e+00
    RHS       C0000039  -1.000000000000e+00
    RHS       C0000040   1.000000000000e+00
    RHS       C0000041  -1.000000000000e+00
    RHS       C0000042   1.000000000000e+00
    RHS       C0000043  -1.000000000000e+00
    RHS       C0000044   1.000000000000e+00
    RHS       C0000045  -1.000000000000e+00
    RHS       C0000046   1.000000000000e+00
    RHS       C0000047  -1.000000000000e+00
    RHS       C0000048   1.000000000000e+00
    RHS       C0000049  -1.000000000000e+00
    RHS       C0000050   1.000000000000e+00
    RHS       C0000051  -1.000000000000e+00
    RHS       C0000052   1.000000000000e+00
    RHS       C0000053  -1.000000000000e+00
    RHS       C0000054   1.000000000000e+00
    RHS       C0000055  -1.000000000000e+00
    RHS       C0000056   1.000000000000e+00
    RHS       C0000057  -1.000000000000e+00
    RHS       C0000058   1.000000000000e+00
    RHS       C0000059  -1.000000000000e+00
    RHS       C0000060   1.000000000000e+00
    RHS       C0000061  -1.000000000000e+00
    RHS       C0000062   1.000000000000e+00
    RHS       C0000063  -1.000000000000e+00
    RHS       C0000064   1.000000000000e+00
    RHS       C0000065  -1.000000000000e+00
    RHS       C0000066   1.000000000000e+00
    RHS       C0000067  -1.000000000000e+00
    RHS       C0000068   1.000000000000e+00
    RHS       C0000069  -1.000000000000e+00
    RHS       C0000070   1.000000000000e+00
    RHS       C0000071  -1.000000000000e+00
    RHS       C0000072   1.000000000000e+00
    RHS       C0000073  -1.000000000000e+00
    RHS       C0000074   1.000000000000e+00
    RHS       C0000075  -1.000000000000e+00
    RHS       C0000076   1.000000000000e+00
    RHS       C0000077  -1.000000000000e+00
    RHS       C0000078   1.000000000000e+00
    RHS       C0000079  -1.000000000000e+00
    RHS       C0000080   1.000000000000e+00
    RHS       C0000081  -1.000000000000e+00
    RHS       C0000082   1.000000000000e+00
    RHS       C0000083  -1.000000000000e+00
    RHS       C0000084   1.000000000000e+00
    RHS       C0000085  -1.000000000000e+00
    RHS       C0000086   1.000000000000e+00
    RHS       C0000087  -1.000000000000e+00
    RHS       C0000088   1.000000000000e+00
    RHS       C0000089  -1.000000000000e+00
    RHS       C0000090   1.000000000000e+00
    RHS       C0000091  -1.000000000000e+00
    RHS       C0000092   1.000000000000e+00
    RHS       C0000093  -1.000000000000e+00
    RHS       C0000094   1.000000000000e+00
    RHS       C0000095  -1.000000000000e+00
    RHS       C0000096   1.000000000000e+00
    RHS       C0000097   1.000000000000e+00
    RHS       C0000098  -1.000000000000e+00
    RHS       C0000099   1.000000000000e+00
    RHS       C0000100  -1.000000000000e+00
    RHS       C0000101   1.000000000000e+00
    RHS       C0000102  -1.000000000000e+00
    RHS       C0000103   1.000000000000e-06
    RHS       C0000104   2.692499370911e+00
    RHS       C0000105   5.999972787115e+00
    RHS       C0000106   5.999974787115e+00
    RHS       C0000107   9.999989775287e-01
    RHS       C0000108   1.000000977529e+00
    RHS       C0000109   1.999998946700e+00
    RHS       C0000110   2.000000946700e+00
    RHS       C0000111   2.999998936644e+00
    RHS       C0000112   3.000000936644e+00
    RHS       C0000113   2.011001102289e+01
    RHS       C0000114   2.011001302289e+01
    RHS       C0000115   1.199999888709e+01
    RHS       C0000116   1.200000088709e+01
    RHS       C0000117   1.999998991637e+00
    RHS       C0000118   2.000000991637e+00
    RHS       C0000119   1.187335747258e+01
    RHS       C0000120   1.187335947258e+01
    RHS       C0000121   9.999989962978e-01
    RHS       C0000122   1.000000996298e+00
    RHS       C0000123   9.999989964267e-01
    RHS       C0000124   1.000000996427e+00
    RHS       C0000125   1.999998993633e+00
    RHS       C0000126   2.000000993633e+00
    RHS       C0000127   9.999989963836e-01
    RHS       C0000128   1.000000996384e+00
    RHS       C0000129   7.999998976977e+00
    RHS       C0000130   8.000000976977e+00
    RHS       C0000131   1.399999880076e+01
    RHS       C0000132   1.400000080076e+01
    RHS       C0000133   9.999989966795e-01
    RHS       C0000134   1.000000996679e+00
    RHS       C0000135   9.999989966899e-01
    RHS       C0000136   1.000000996690e+00
    RHS       C0000137   1.999998993269e+00
    RHS       C0000138   2.000000993269e+00
    RHS       C0000139   5.999998981242e+00
    RHS       C0000140   6.000000981242e+00
    RHS       C0000141   1.299999894597e+01
    RHS       C0000142   1.300000094597e+01
    RHS       C0000143   1.299999896177e+01
    RHS       C0000144   1.300000096177e+01
BOUNDS
 LO BND       X0000048   9.500000000000e+00
 UP BND       X0000048   3.800000000000e+01
 LO BND       X0000049   2.500000000000e+00
 UP BND       X0000049   1.000000000000e+01
 LO BND       X0000050   6.500000000000e+00
 UP BND       X0000050   2.600000000000e+01
 LO BND       X0000051   6.500000000000e+00
 UP BND       X0000051   2.600000000000e+01
 LO BND       X0000052   5.000000000000e-01
 UP BND       X0000052   2.000000000000e+00
 LO BND       X0000053   1.000000000000e+00
 UP BND       X0000053   4.000000000000e+00
 LO BND       X0000054   2.500000000000e+00
 UP BND       X0000054   1.000000000000e+01
 LO BND       X0000055   9.000000000000e+00
 UP BND       X0000055   3.600000000000e+01
 LO BND       X0000056   1.000000000000e+00
 UP BND       X0000056   4.000000000000e+00
 LO BND       X0000057   1.000000000000e+00
 UP BND       X0000057   4.000000000000e+00
 LO BND       X0000058   4.500000000000e+00
 UP BND       X0000058   1.800000000000e+01
 LO BND       X0000059   1.500000000000e+01
 UP BND       X0000059   6.000000000000e+01
 LO BND       X0000060   5.000000000000e-01
 UP BND       X0000060   2.000000000000e+00
 LO BND       X0000061   5.000000000000e-01
 UP BND       X0000061   2.000000000000e+00
 LO BND       X0000062   6.000000000000e+00
 UP BND       X0000062   2.400000000000e+01
 LO BND       X0000063   8.000000000000e+00
 UP BND       X0000063   3.200000000000e+01
 LO BND       X0000064   1.100000000000e+01
 UP BND       X0000064   4.400000000000e+01
 LO BND       X0000065   5.000000000000e-01
 UP BND       X0000065   2.000000000000e+00
 LO BND       X0000066   1.500000000000e+00
 UP BND       X0000066   6.000000000000e+00
 LO BND       X0000067   1.000000000000e+00
 UP BND       X0000067   4.000000000000e+00
 LO BND       X0000068   1.000000000000e+01
 UP BND       X0000068   4.000000000000e+01
 LO BND       X0000069   6.000000000000e+00
 UP BND       X0000069   2.400000000000e+01
 LO BND       X0000070   1.500000000000e+00
 UP BND       X0000070   6.000000000000e+00
 LO BND       X0000071   1.500000000000e+00
 UP BND       X0000071   6.000000000000e+00
 LO BND       X0000072   3.000000000000e+00
 UP BND       X0000072   1.200000000000e+01
 LO BND       X0000073   5.000000000000e-01
 UP BND       X0000073   2.000000000000e+00
 LO BND       X0000074   1.500000000000e+01
 UP BND       X0000074   6.000000000000e+01
 LO BND       X0000075   5.000000000000e-01
 UP BND       X0000075   2.000000000000e+00
 LO BND       X0000076   4.000000000000e+00
 UP BND       X0000076   1.600000000000e+01
 LO BND       X0000077   1.000000000000e+00
 UP BND       X0000077   4.000000000000e+00
 LO BND       X0000078   5.000000000000e-01
 UP BND       X0000078   2.000000000000e+00
 LO BND       X0000079   5.000000000000e-01
 UP BND       X0000079   2.000000000000e+00
 LO BND       X0000080   5.000000000000e-01
 UP BND       X0000080   2.000000000000e+00
 LO BND       X0000081   2.000000000000e+00
 UP BND       X0000081   8.000000000000e+00
 LO BND       X0000082   5.000000000000e-01
 UP BND       X0000082   2.000000000000e+00
 LO BND       X0000083   1.000000000000e+00
 UP BND       X0000083   4.000000000000e+00
 LO BND       X0000084   1.100000000000e+01
 UP BND       X0000084   4.400000000000e+01
 LO BND       X0000085   2.000000000000e+00
 UP BND       X0000085   8.000000000000e+00
 LO BND       X0000086   1.000000000000e+00
 UP BND       X0000086   4.000000000000e+00
 LO BND       X0000087   1.000000000000e+01
 UP BND       X0000087   4.000000000000e+01
 LO BND       X0000088   5.000000000000e-01
 UP BND       X0000088   2.000000000000e+00
 LO BND       X0000089   5.000000000000e-01
 UP BND       X0000089   2.000000000000e+00
 LO BND       X0000090   5.000000000000e-01
 UP BND       X0000090   2.000000000000e+00
 LO BND       X0000091   1.050000000000e+01
 UP BND       X0000091   4.200000000000e+01
 LO BND       X0000092   7.000000000000e+00
 UP BND       X0000092   2.800000000000e+01
 LO BND       X0000093   5.000000000000e-01
 UP BND       X0000093   2.000000000000e+00
 LO BND       X0000094   5.000000000000e-01
 UP BND       X0000094   2.000000000000e+00
 LO BND       X0000095   2.000000000000e+00
 UP BND       X0000095   8.000000000000e+00
ENDATA
