*SENSE:Minimize
NAME          independent_energy_feasibility
ROWS
 N  OBJ
 E  _C1
 L  _C2
 L  _C3
 L  _C4
 L  _C5
 L  _C6
 L  _C7
COLUMNS
    t         _C2       -1.000000000000e+00
    t         _C3       -1.000000000000e+00
    t         _C4       -1.000000000000e+00
    t         _C5       -1.000000000000e+00
    t         _C6       -1.000000000000e+00
    t         _C7       -1.000000000000e+00
    t         OBJ        1.000000000000e+00
    w_000     _C1        1.000000000000e+00
    w_000     _C2        2.740101383751e-03
    w_000     _C3       -2.740101383751e-03
    w_000     _C4        8.530379020870e-04
    w_000     _C5       -8.530379020870e-04
    w_000     _C6        3.109169011998e-03
    w_000     _C7       -3.109169011998e-03
    w_001     _C1        1.000000000000e+00
    w_001     _C2        2.603096314564e-03
    w_001     _C3       -2.603096314564e-03
    w_001     _C4        5.583125484353e-03
    w_001     _C5       -5.583125484353e-03
    w_001     _C6        2.532316200069e-03
    w_001     _C7       -2.532316200069e-03
    w_002     _C1        1.000000000000e+00
    w_002     _C2        2.740101383751e-03
    w_002     _C3       -2.740101383751e-03
    w_002     _C4        1.591292399447e-03
    w_002     _C5       -1.591292399447e-03
    w_002     _C6        4.797067101170e-03
    w_002     _C7       -4.797067101170e-03
    w_003     _C1        1.000000000000e+00
    w_003     _C2        2.740101383751e-03
    w_003     _C3       -2.740101383751e-03
    w_003     _C4        3.268040285233e-03
    w_003     _C5       -3.268040285233e-03
    w_003     _C6        4.491680244902e-04
    w_003     _C7       -4.491680244902e-04
    w_004     _C1        1.000000000000e+00
    w_004     _C2        2.877106452939e-03
    w_004     _C3       -2.877106452939e-03
    w_004     _C4        1.571733711805e-02
    w_004     _C5       -1.571733711805e-02
    w_004     _C6        1.279316644448e-03
    w_004     _C7       -1.279316644448e-03
    w_005     _C1        1.000000000000e+00
    w_005     _C2        2.740101383751e-03
    w_005     _C3       -2.740101383751e-03
    w_005     _C4        1.010720972263e-02
    w_005     _C5       -1.010720972263e-02
    w_005     _C6        2.110255270824e-03
    w_005     _C7       -2.110255270824e-03
    w_006     _C1        1.000000000000e+00
    w_006     _C2        2.740101383751e-03
    w_006     _C3       -2.740101383751e-03
    w_006     _C4        1.018133856462e-02
    w_006     _C5       -1.018133856462e-02
    w_006     _C6        5.174591418555e-03
    w_006     _C7       -5.174591418555e-03
    w_007     _C1        1.000000000000e+00
    w_007     _C2        2.877106452939e-03
    w_007     _C3       -2.877106452939e-03
    w_007     _C4        5.501512966631e-04
    w_007     _C5       -5.501512966631e-04
    w_007     _C6        2.595171085765e-03
    w_007     _C7       -2.595171085765e-03
    w_008     _C1        1.000000000000e+00
    w_008     _C2        2.877106452939e-03
    w_008     _C3       -2.877106452939e-03
    w_008     _C4        8.018657410371e-03
    w_008     _C5       -8.018657410371e-03
    w_008     _C6        3.119044092233e-04
    w_008     _C7       -3.119044092233e-04
    w_009     _C1        1.000000000000e+00
    w_009     _C2        2.740101383751e-03
    w_009     _C3       -2.740101383751e-03
    w_009     _C4        1.097400140713e-02
    w_009     _C5       -1.097400140713e-02
    w_009     _C6        2.466449414901e-03
    w_009     _C7       -2.466449414901e-03
    w_010     _C1        1.000000000000e+00
    w_010     _C2        2.877106452939e-03
    w_010     _C3       -2.877106452939e-03
    w_010     _C4        5.196704876899e-03
    w_010     _C5       -5.196704876899e-03
    w_010     _C6        3.690811237841e-03
    w_010     _C7       -3.690811237841e-03
    w_011     _C1        1.000000000000e+00
    w_011     _C2        2.603096314564e-03
    w_011     _C3       -2.603096314564e-03
    w_011     _C4        2.098463126059e-04
    w_011     _C5       -2.098463126059e-04
    w_011     _C6        3.115834691157e-03
    w_011     _C7       -3.115834691157e-03
    w_012     _C1        1.000000000000e+00
    w_012     _C2        2.877106452939e-03
    w_012     _C3       -2.877106452939e-03
    w_012     _C4        1.326997289392e-02
    w_012     _C5       -1.326997289392e-02
    w_012     _C6        2.084333185207e-03
    w_012     _C7       -2.084333185207e-03
    w_013     _C1        1.000000000000e+00
    w_013     _C2        2.877106452939e-03
    w_013     _C3       -2.877106452939e-03
    w_013     _C4        1.220547058718e-02
    w_013     _C5       -1.220547058718e-02
    w_013     _C6        1.440774206290e-03
    w_013     _C7       -1.440774206290e-03
    w_014     _C1        1.000000000000e+00
    w_014     _C2        2.740101383751e-03
    w_014     _C3       -2.740101383751e-03
    w_014     _C4        2.989930714310e-03
    w_014     _C5       -2.989930714310e-03
    w_014     _C6        1.906779242581e-03
    w_014     _C7       -1.906779242581e-03
    w_015     _C1        1.000000000000e+00
    w_015     _C2        2.740101383751e-03
    w_015     _C3       -2.740101383751e-03
    w_015     _C4        3.503169286105e-04
    w_015     _C5       -3.503169286105e-04
    w_015     _C6        4.175332049573e-03
    w_015     _C7       -4.175332049573e-03
    w_016     _C1        1.000000000000e+00
    w_016     _C2        2.740101383751e-03
    w_016     _C3       -2.740101383751e-03
    w_016     _C4        2.754801713438e-04
    w_016     _C5       -2.754801713438e-04
    w_016     _C6        1.144966177850e-03
    w_016     _C7       -1.144966177850e-03
    w_017     _C1        1.000000000000e+00
    w_017     _C2        2.740101383751e-03
    w_017     _C3       -2.740101383751e-03
    w_017     _C4        2.373821940499e-02
    w_017     _C5       -2.373821940499e-02
    w_017     _C6        4.145064928653e-04
    w_017     _C7       -4.145064928653e-04
    w_018     _C1        1.000000000000e+00
    w_018     _C2        2.740101383751e-03
    w_018     _C3       -2.740101383751e-03
    w_018     _C4        1.019559800081e-02
    w_018     _C5       -1.019559800081e-02
    w_018     _C6        4.120377228065e-04
    w_018     _C7       -4.120377228065e-04
    w_019     _C1        1.000000000000e+00
    w_019     _C2        2.740101383751e-03
    w_019     _C3       -2.740101383751e-03
    w_019     _C4        8.450687987457e-03
    w_019     _C5       -8.450687987457e-03
    w_019     _C6        1.304251222041e-03
    w_019     _C7       -1.304251222041e-03
    w_020     _C1        1.000000000000e+00
    w_020     _C2        2.877106452939e-03
    w_020     _C3       -2.877106452939e-03
    w_020     _C4        1.885886283120e-03
    w_020     _C5       -1.885886283120e-03
    w_020     _C6        3.572409025823e-03
    w_020     _C7       -3.572409025823e-03
    w_021     _C1        1.000000000000e+00
    w_021     _C2        2.877106452939e-03
    w_021     _C3       -2.877106452939e-03
    w_021     _C4        7.414906814585e-04
    w_021     _C5       -7.414906814585e-04
    w_021     _C6        1.275959117168e-03
    w_021     _C7       -1.275959117168e-03
    w_022     _C1        1.000000000000e+00
    w_022     _C2        2.603096314564e-03
    w_022     _C3       -2.603096314564e-03
    w_022     _C4        1.315013295154e-02
    w_022     _C5       -1.315013295154e-02
    w_022     _C6        1.088530094307e-03
    w_022     _C7       -1.088530094307e-03
    w_023     _C1        1.000000000000e+00
    w_023     _C2        2.877106452939e-03
    w_023     _C3       -2.877106452939e-03
    w_023     _C4        1.072744463117e-02
    w_023     _C5       -1.072744463117e-02
    w_023     _C6        1.075099985187e-03
    w_023     _C7       -1.075099985187e-03
    w_024     _C1        1.000000000000e+00
    w_024     _C2        2.740101383751e-03
    w_024     _C3       -2.740101383751e-03
    w_024     _C4        4.093772883993e-03
    w_024     _C5       -4.093772883993e-03
    w_024     _C6        3.749962968449e-03
    w_024     _C7       -3.749962968449e-03
    w_025     _C1        1.000000000000e+00
    w_025     _C2        2.740101383751e-03
    w_025     _C3       -2.740101383751e-03
    w_025     _C4        1.499627484871e-02
    w_025     _C5       -1.499627484871e-02
    w_025     _C6        3.140621142547e-03
    w_025     _C7       -3.140621142547e-03
    w_026     _C1        1.000000000000e+00
    w_026     _C2        2.740101383751e-03
    w_026     _C3       -2.740101383751e-03
    w_026     _C4        5.045413270317e-04
    w_026     _C5       -5.045413270317e-04
    w_026     _C6        2.349429714116e-03
    w_026     _C7       -2.349429714116e-03
    w_027     _C1        1.000000000000e+00
    w_027     _C2        2.740101383751e-03
    w_027     _C3       -2.740101383751e-03
    w_027     _C4        8.746394309413e-03
    w_027     _C5       -8.746394309413e-03
    w_027     _C6        3.703155088135e-04
    w_027     _C7       -3.703155088135e-04
    w_028     _C1        1.000000000000e+00
    w_028     _C2        2.603096314564e-03
    w_028     _C3       -2.603096314564e-03
    w_028     _C4        3.925996964662e-03
    w_028     _C5       -3.925996964662e-03
    w_028     _C6        9.445514244803e-04
    w_028     _C7       -9.445514244803e-04
    w_029     _C1        1.000000000000e+00
    w_029     _C2        2.603096314564e-03
    w_029     _C3       -2.603096314564e-03
    w_029     _C4        3.580129789186e-03
    w_029     _C5       -3.580129789186e-03
    w_029     _C6        5.880116525947e-04
    w_029     _C7       -5.880116525947e-04
    w_030     _C1        1.000000000000e+00
    w_030     _C2        2.740101383751e-03
    w_030     _C3       -2.740101383751e-03
    w_030     _C4        1.173986460008e-02
    w_030     _C5       -1.173986460008e-02
    w_030     _C6        3.864810151582e-03
    w_030     _C7       -3.864810151582e-03
    w_031     _C1        1.000000000000e+00
    w_031     _C2        2.603096314564e-03
    w_031     _C3       -2.603096314564e-03
    w_031     _C4        7.657721752689e-03
    w_031     _C5       -7.657721752689e-03
    w_031     _C6        2.123043499728e-03
    w_031     _C7       -2.123043499728e-03
    w_032     _C1        1.000000000000e+00
    w_032     _C2        2.603096314564e-03
    w_032     _C3       -2.603096314564e-03
    w_032     _C4        1.574919330527e-02
    w_032     _C5       -1.574919330527e-02
    w_032     _C6        3.295314274428e-04
    w_032     _C7       -3.295314274428e-04
    w_033     _C1        1.000000000000e+00
    w_033     _C2        2.603096314564e-03
    w_033     _C3       -2.603096314564e-03
    w_033     _C4        5.904620148341e-03
    w_033     _C5       -5.904620148341e-03
    w_033     _C6        5.476423245939e-03
    w_033     _C7       -5.476423245939e-03
    w_034     _C1        1.000000000000e+00
    w_034     _C2        2.877106452939e-03
    w_034     _C3       -2.877106452939e-03
    w_034     _C4        1.192705762400e-02
    w_034     _C5       -1.192705762400e-02
    w_034     _C6        1.165851972547e-03
    w_034     _C7       -1.165851972547e-03
    w_035     _C1        1.000000000000e+00
    w_035     _C2        2.740101383751e-03
    w_035     _C3       -2.740101383751e-03
    w_035     _C4        9.089632085309e-03
    w_035     _C5       -9.089632085309e-03
    w_035     _C6        3.916061818002e-03
    w_035     _C7       -3.916061818002e-03
    w_036     _C1        1.000000000000e+00
    w_036     _C2        2.603096314564e-03
    w_036     _C3       -2.603096314564e-03
    w_036     _C4        7.205566155744e-04
    w_036     _C5       -7.205566155744e-04
    w_036     _C6        1.888855971955e-03
    w_036     _C7       -1.888855971955e-03
    w_037     _C1        1.000000000000e+00
    w_037     _C2        2.877106452939e-03
    w_037     _C3       -2.877106452939e-03
    w_037     _C4        5.003241746289e-03
    w_037     _C5       -5.003241746289e-03
    w_037     _C6        3.002073766849e-03
    w_037     _C7       -3.002073766849e-03
    w_038     _C1        1.000000000000e+00
    w_038     _C2        2.603096314564e-03
    w_038     _C3       -2.603096314564e-03
    w_038     _C4        7.836217531845e-03
    w_038     _C5       -7.836217531845e-03
    w_038     _C6        1.030069619316e-03
    w_038     _C7       -1.030069619316e-03
    w_039     _C1        1.000000000000e+00
    w_039     _C2        2.603096314564e-03
    w_039     _C3       -2.603096314564e-03
    w_039     _C4        4.126134724973e-04
    w_039     _C5       -4.126134724973e-04
    w_039     _C6        4.671653582185e-03
    w_039     _C7       -4.671653582185e-03
    w_040     _C1        1.000000000000e+00
    w_040     _C2        2.603096314564e-03
    w_040     _C3       -2.603096314564e-03
    w_040     _C4        9.198347644852e-03
    w_040     _C5       -9.198347644852e-03
    w_040     _C6        1.541055646077e-03
    w_040     _C7       -1.541055646077e-03
    w_041     _C1        1.000000000000e+00
    w_041     _C2        2.603096314564e-03
    w_041     _C3       -2.603096314564e-03
    w_041     _C4        1.481130670136e-02
    w_041     _C5       -1.481130670136e-02
    w_041     _C6        4.085616945638e-03
    w_041     _C7       -4.085616945638e-03
    w_042     _C1        1.000000000000e+00
    w_042     _C2        2.877106452939e-03
    w_042     _C3       -2.877106452939e-03
    w_042     _C4        1.914900696174e-02
    w_042     _C5       -1.914900696174e-02
    w_042     _C6        1.880857156964e-03
    w_042     _C7       -1.880857156964e-03
    w_043     _C1        1.000000000000e+00
    w_043     _C2        2.877106452939e-03
    w_043     _C3       -2.877106452939e-03
    w_043     _C4        9.101767775677e-05
    w_043     _C5       -9.101767775677e-05
    w_043     _C6        4.894534143090e-03
    w_043     _C7       -4.894534143090e-03
    w_044     _C1        1.000000000000e+00
    w_044     _C2        2.740101383751e-03
    w_044     _C3       -2.740101383751e-03
    w_044     _C4        2.676931033580e-04
    w_044     _C5       -2.676931033580e-04
    w_044     _C6        6.852811929097e-04
    w_044     _C7       -6.852811929097e-04
    w_045     _C1        1.000000000000e+00
    w_045     _C2        2.877106452939e-03
    w_045     _C3       -2.877106452939e-03
    w_045     _C4        6.849484774209e-03
    w_045     _C5       -6.849484774209e-03
    w_045     _C6        2.343455290574e-03
    w_045     _C7       -2.343455290574e-03
    w_046     _C1        1.000000000000e+00
    w_046     _C2        2.603096314564e-03
    w_046     _C3       -2.603096314564e-03
    w_046     _C4        1.016444972886e-02
    w_046     _C5       -1.016444972886e-02
    w_046     _C6        2.077914383054e-03
    w_046     _C7       -2.077914383054e-03
    w_047     _C1        1.000000000000e+00
    w_047     _C2        2.603096314564e-03
    w_047     _C3       -2.603096314564e-03
    w_047     _C4        5.721067831531e-03
    w_047     _C5       -5.721067831531e-03
    w_047     _C6        3.327902039204e-03
    w_047     _C7       -3.327902039204e-03
RHS
    RHS       _C1        3.650000000000e+02
    RHS       _C2        1.000000000000e+00
    RHS       _C3       -1.000000000000e+00
    RHS       _C4        1.000000000000e+00
    RHS       _C5       -1.000000000000e+00
    RHS       _C6        1.000000000000e+00
    RHS       _C7       -1.000000000000e+00
BOUNDS
 LO BND       w_000      9.500000000000e+00
 UP BND       w_000      3.800000000000e+01
 LO BND       w_001      2.500000000000e+00
 UP BND       w_001      1.000000000000e+01
 LO BND       w_002      6.500000000000e+00
 UP BND       w_002      2.600000000000e+01
 LO BND       w_003      6.500000000000e+00
 UP BND       w_003      2.600000000000e+01
 LO BND       w_004      5.000000000000e-01
 UP BND       w_004      2.000000000000e+00
 LO BND       w_005      1.000000000000e+00
 UP BND       w_005      4.000000000000e+00
 LO BND       w_006      2.500000000000e+00
 UP BND       w_006      1.000000000000e+01
 LO BND       w_007      9.000000000000e+00
 UP BND       w_007      3.600000000000e+01
 LO BND       w_008      1.000000000000e+00
 UP BND       w_008      4.000000000000e+00
 LO BND       w_009      1.000000000000e+00
 UP BND       w_009      4.000000000000e+00
 LO BND       w_010      4.500000000000e+00
 UP BND       w_010      1.800000000000e+01
 LO BND       w_011      1.500000000000e+01
 UP BND       w_011      6.000000000000e+01
 LO BND       w_012      5.000000000000e-01
 UP BND       w_012      2.000000000000e+00
 LO BND       w_013      5.000000000000e-01
 UP BND       w_013      2.000000000000e+00
 LO BND       w_014      6.000000000000e+00
 UP BND       w_014      2.400000000000e+01
 LO BND       w_015      8.000000000000e+00
 UP BND       w_015      3.200000000000e+01
 LO BND       w_016      1.100000000000e+01
 UP BND       w_016      4.400000000000e+01
 LO BND       w_017      5.000000000000e-01
 UP BND       w_017      2.000000000000e+00
 LO BND       w_018      1.500000000000e+00
 UP BND       w_018      6.000000000000e+00
 LO BND       w_019      1.000000000000e+00
 UP BND       w_019      4.000000000000e+00
 LO BND       w_020      1.000000000000e+01
 UP BND       w_020      4.000000000000e+01
 LO BND       w_021      6.000000000000e+00
 UP BND       w_021      2.400000000000e+01
 LO BND       w_022      1.500000000000e+00
 UP BND       w_022      6.000000000000e+00
 LO BND       w_023      1.500000000000e+00
 UP BND       w_023      6.000000000000e+00
 LO BND       w_024      3.000000000000e+00
 UP BND       w_024      1.200000000000e+01
 LO BND       w_025      5.000000000000e-01
 UP BND       w_025      2.000000000000e+00
 LO BND       w_026      1.500000000000e+01
 UP BND       w_026      6.000000000000e+01
 LO BND       w_027      5.000000000000e-01
 UP BND       w_027      2.000000000000e+00
 LO BND       w_028      4.000000000000e+00
 UP BND       w_028      1.600000000000e+01
 LO BND       w_029      1.000000000000e+00
 UP BND       w_029      4.000000000000e+00
 LO BND       w_030      5.000000000000e-01
 UP BND       w_030      2.000000000000e+00
 LO BND       w_031      5.000000000000e-01
 UP BND       w_031      2.000000000000e+00
 LO BND       w_032      5.000000000000e-01
 UP BND       w_032      2.000000000000e+00
 LO BND       w_033      2.000000000000e+00
 UP BND       w_033      8.000000000000e+00
 LO BND       w_034      5.000000000000e-01
 UP BND       w_034      2.000000000000e+00
 LO BND       w_035      1.000000000000e+00
 UP BND       w_035      4.000000000000e+00
 LO BND       w_036      1.100000000000e+01
 UP BND       w_036      4.400000000000e+01
 LO BND       w_037      2.000000000000e+00
 UP BND       w_037      8.000000000000e+00
 LO BND       w_038      1.000000000000e+00
 UP BND       w_038      4.000000000000e+00
 LO BND       w_039      1.000000000000e+01
 UP BND       w_039      4.000000000000e+01
 LO BND       w_040      5.000000000000e-01
 UP BND       w_040      2.000000000000e+00
 LO BND       w_041      5.000000000000e-01
 UP BND       w_041      2.000000000000e+00
 LO BND       w_042      5.000000000000e-01
 UP BND       w_042      2.000000000000e+00
 LO BND       w_043      1.050000000000e+01
 UP BND       w_043      4.200000000000e+01
 LO BND       w_044      7.000000000000e+00
 UP BND       w_044      2.800000000000e+01
 LO BND       w_045      5.000000000000e-01
 UP BND       w_045      2.000000000000e+00
 LO BND       w_046      5.000000000000e-01
 UP BND       w_046      2.000000000000e+00
 LO BND       w_047      2.000000000000e+00
 UP BND       w_047      8.000000000000e+00
ENDATA
