*SENSE:Minimize
NAME          MODEL
ROWS
 N  OBJ
 E  C0000000
 G  C0000001
 G  C0000002
 G  C0000003
 G  C0000004
 G  C0000005
 G  C0000006
 G  C0000007
 G  C0000008
 G  C0000009
 G  C0000010
 G  C0000011
 G  C0000012
 G  C0000013
 G  C0000014
 G  C0000015
 G  C0000016
 G  C0000017
 G  C0000018
 G  C0000019
 G  C0000020
 G  C0000021
 G  C0000022
 G  C0000023
 G  C0000024
 G  C0000025
 G  C0000026
 G  C0000027
 G  C0000028
 G  C0000029
 G  C0000030
 G  C0000031
 G  C0000032
 G  C0000033
 G  C0000034
 G  C0000035
 G  C0000036
 G  C0000037
 G  C0000038
 G  C0000039
 G  C0000040
 G  C0000041
 G  C0000042
 G  C0000043
 G  C0000044
 G  C0000045
 G  C0000046
 G  C0000047
 G  C0000048
 L  C0000049
 L  C0000050
 L  C0000051
 L  C0000052
 L  C0000053
 L  C0000054
 L  C0000055
 L  C0000056
 G  C0000057
 L  C0000058
 G  C0000059
 L  C0000060
 G  C0000061
 L  C0000062
 G  C0000063
 L  C0000064
 G  C0000065
 L  C0000066
 G  C0000067
 L  C0000068
 G  C0000069
 L  C0000070
 G  C0000071
 L  C0000072
 G  C0000073
 L  C0000074
 G  C0000075
 L  C0000076
COLUMNS
    X0000000  C0000001   1.000000000000e+00
    X0000000  C0000002   1.000000000000e+00
    X0000000  C0000056   1.000000000000e+00
    X0000001  C0000003   1.000000000000e+00
    X0000001  C0000004   1.000000000000e+00
    X0000001  C0000056   1.000000000000e+00
    X0000002  C0000005   1.000000000000e+00
    X0000002  C0000006   1.000000000000e+00
    X0000002  C0000056   1.000000000000e+00
    X0000003  C0000007   1.000000000000e+00
    X0000003  C0000008   1.000000000000e+00
    X0000003  C0000056   1.000000000000e+00
    X0000004  C0000009   1.000000000000e+00
    X0000004  C0000010   1.000000000000e+00
    X0000004  C0000056   1.000000000000e+00
    X0000005  C0000011   1.000000000000e+00
    X0000005  C0000012   1.000000000000e+00
    X0000005  C0000056   1.000000000000e+00
    X0000006  C0000013   1.000000000000e+00
    X0000006  C0000014   1.000000000000e+00
    X0000006  C0000056   1.000000000000e+00
    X0000007  C0000015   1.000000000000e+00
    X0000007  C0000016   1.000000000000e+00
    X0000007  C0000056   1.000000000000e+00
    X0000008  C0000017   1.000000000000e+00
    X0000008  C0000018   1.000000000000e+00
    X0000008  C0000056   1.000000000000e+00
    X0000009  C0000019   1.000000000000e+00
    X0000009  C0000020   1.000000000000e+00
    X0000009  C0000056   1.000000000000e+00
    X0000010  C0000021   1.000000000000e+00
    X0000010  C0000022   1.000000000000e+00
    X0000010  C0000056   1.000000000000e+00
    X0000011  C0000023   1.000000000000e+00
    X0000011  C0000024   1.000000000000e+00
    X0000011  C0000056   1.000000000000e+00
    X0000012  C0000025   1.000000000000e+00
    X0000012  C0000026   1.000000000000e+00
    X0000012  C0000056   1.000000000000e+00
    X0000013  C0000027   1.000000000000e+00
    X0000013  C0000028   1.000000000000e+00
    X0000013  C0000056   1.000000000000e+00
    X0000014  C0000029   1.000000000000e+00
    X0000014  C0000030   1.000000000000e+00
    X0000014  C0000056   1.000000000000e+00
    X0000015  C0000031   1.000000000000e+00
    X0000015  C0000032   1.000000000000e+00
    X0000015  C0000056   1.000000000000e+00
    X0000016  C0000033   1.000000000000e+00
    X0000016  C0000034   1.000000000000e+00
    X0000016  C0000056   1.000000000000e+00
    X0000017  C0000035   1.000000000000e+00
    X0000017  C0000036   1.000000000000e+00
    X0000017  C0000056   1.000000000000e+00
    X0000018  C0000037   1.000000000000e+00
    X0000018  C0000038   1.000000000000e+00
    X0000018  C0000056   1.000000000000e+00
    X0000019  C0000039   1.000000000000e+00
    X0000019  C0000040   1.000000000000e+00
    X0000019  C0000056   1.000000000000e+00
    X0000020  C0000041   1.000000000000e+00
    X0000020  C0000042   1.000000000000e+00
    X0000020  C0000056   1.000000000000e+00
    X0000021  C0000043   1.000000000000e+00
    X0000021  C0000044   1.000000000000e+00
    X0000021  C0000056   1.000000000000e+00
    X0000022  C0000045   1.000000000000e+00
    X0000022  C0000046   1.000000000000e+00
    X0000022  C0000056   1.000000000000e+00
    X0000023  C0000047   1.000000000000e+00
    X0000023  C0000048   1.000000000000e+00
    X0000023  C0000056   1.000000000000e+00
    X0000024  C0000000   1.000000000000e+00
    X0000024  C0000001  -5.555555555556e-02
    X0000024  C0000002   5.555555555556e-02
    X0000024  C0000049   2.740101383751e-03
    X0000024  C0000050  -2.740101383751e-03
    X0000024  C0000051   8.530379020870e-04
    X0000024  C0000052  -8.530379020870e-04
    X0000024  C0000053   3.109169011998e-03
    X0000024  C0000054  -3.109169011998e-03
    X0000025  C0000000   1.000000000000e+00
    X0000025  C0000003  -2.941176470588e-02
    X0000025  C0000004   2.941176470588e-02
    X0000025  C0000049   2.603096314564e-03
    X0000025  C0000050  -2.603096314564e-03
    X0000025  C0000051   4.126134724973e-04
    X0000025  C0000052  -4.126134724973e-04
    X0000025  C0000053   4.671653582185e-03
    X0000025  C0000054  -4.671653582185e-03
    X0000026  C0000000   1.000000000000e+00
    X0000026  C0000005  -6.666666666667e-02
    X0000026  C0000006   6.666666666667e-02
    X0000026  C0000049   2.740101383751e-03
    X0000026  C0000050  -2.740101383751e-03
    X0000026  C0000051   3.857632575591e-03
    X0000026  C0000052  -3.857632575591e-03
    X0000026  C0000053   8.850046906631e-04
    X0000026  C0000054  -8.850046906631e-04
    X0000027  C0000000   1.000000000000e+00
    X0000027  C0000007  -2.000000000000e-01
    X0000027  C0000008   2.000000000000e-01
    X0000027  C0000049   2.877106452939e-03
    X0000027  C0000050  -2.877106452939e-03
    X0000027  C0000051   1.175513534379e-02
    X0000027  C0000052  -1.175513534379e-02
    X0000027  C0000053   3.241988841159e-04
    X0000027  C0000054  -3.241988841159e-04
    X0000028  C0000000   1.000000000000e+00
    X0000028  C0000009  -5.000000000000e-01
    X0000028  C0000010   5.000000000000e-01
    X0000028  C0000049   2.877106452939e-03
    X0000028  C0000050  -2.877106452939e-03
    X0000028  C0000051   1.571733711805e-02
    X0000028  C0000052  -1.571733711805e-02
    X0000028  C0000053   1.279316644448e-03
    X0000028  C0000054  -1.279316644448e-03
    X0000028  C0000067   1.000000000000e+00
    X0000028  C0000068   1.000000000000e+00
    X0000029  C0000000   1.000000000000e+00
    X0000029  C0000011  -3.333333333333e-01
    X0000029  C0000012   3.333333333333e-01
    X0000029  C0000049   2.603096314564e-03
    X0000029  C0000050  -2.603096314564e-03
    X0000029  C0000051   1.481130670136e-02
    X0000029  C0000052  -1.481130670136e-02
    X0000029  C0000053   4.085616945638e-03
    X0000029  C0000054  -4.085616945638e-03
    X0000030  C0000000   1.000000000000e+00
    X0000030  C0000013  -5.263157894737e-02
    X0000030  C0000014   5.263157894737e-02
    X0000030  C0000049   2.740101383751e-03
    X0000030  C0000050  -2.740101383751e-03
    X0000030  C0000051   4.060399735482e-03
    X0000030  C0000052  -4.060399735482e-03
    X0000030  C0000053   4.202982274231e-03
    X0000030  C0000054  -4.202982274231e-03
    X0000030  C0000075   1.000000000000e+00
    X0000030  C0000076   1.000000000000e+00
    X0000031  C0000000   1.000000000000e+00
    X0000031  C0000015  -4.545454545455e-02
    X0000031  C0000016   4.545454545455e-02
    X0000031  C0000049   2.740101383751e-03
    X0000031  C0000050  -2.740101383751e-03
    X0000031  C0000051   1.608990281233e-04
    X0000031  C0000052  -1.608990281233e-04
    X0000031  C0000053   7.494692144374e-04
    X0000031  C0000054  -7.494692144374e-04
    X0000031  C0000057   1.000000000000e+00
    X0000031  C0000058   1.000000000000e+00
    X0000032  C0000000   1.000000000000e+00
    X0000032  C0000017  -3.125000000000e-02
    X0000032  C0000018   3.125000000000e-02
    X0000032  C0000049   2.877106452939e-03
    X0000032  C0000050  -2.877106452939e-03
    X0000032  C0000051   3.296862549856e-05
    X0000032  C0000052  -3.296862549856e-05
    X0000032  C0000053   1.104083345677e-03
    X0000032  C0000054  -1.104083345677e-03
    X0000032  C0000061   1.000000000000e+00
    X0000032  C0000062   1.000000000000e+00
    X0000033  C0000000   1.000000000000e+00
    X0000033  C0000019  -1.428571428571e-01
    X0000033  C0000020   1.428571428571e-01
    X0000033  C0000049   2.877106452939e-03
    X0000033  C0000050  -2.877106452939e-03
    X0000033  C0000051   1.072744463117e-02
    X0000033  C0000052  -1.072744463117e-02
    X0000033  C0000053   1.075099985187e-03
    X0000033  C0000054  -1.075099985187e-03
    X0000033  C0000073   1.000000000000e+00
    X0000033  C0000074   1.000000000000e+00
    X0000034  C0000000   1.000000000000e+00
    X0000034  C0000021  -2.857142857143e-02
    X0000034  C0000022   2.857142857143e-02
    X0000034  C0000049   2.603096314564e-03
    X0000034  C0000050  -2.603096314564e-03
    X0000034  C0000051   2.098463126059e-04
    X0000034  C0000052  -2.098463126059e-04
    X0000034  C0000053   3.115834691157e-03
    X0000034  C0000054  -3.115834691157e-03
    X0000034  C0000065   1.000000000000e+00
    X0000034  C0000066   1.000000000000e+00
    X0000035  C0000000   1.000000000000e+00
    X0000035  C0000023  -2.500000000000e-01
    X0000035  C0000024   2.500000000000e-01
    X0000035  C0000049   2.740101383751e-03
    X0000035  C0000050  -2.740101383751e-03
    X0000035  C0000051   1.032312388042e-02
    X0000035  C0000052  -1.032312388042e-02
    X0000035  C0000053   4.939613884363e-03
    X0000035  C0000054  -4.939613884363e-03
    X0000035  C0000069   1.000000000000e+00
    X0000035  C0000070   1.000000000000e+00
    X0000036  C0000000   1.000000000000e+00
    X0000036  C0000025  -8.333333333333e-02
    X0000036  C0000026   8.333333333333e-02
    X0000036  C0000049   2.877106452939e-03
    X0000036  C0000050  -2.877106452939e-03
    X0000036  C0000051   4.600134564580e-03
    X0000036  C0000052  -4.600134564580e-03
    X0000036  C0000053   2.013133856713e-03
    X0000036  C0000054  -2.013133856713e-03
    X0000037  C0000000   1.000000000000e+00
    X0000037  C0000027  -2.000000000000e-01
    X0000037  C0000028   2.000000000000e-01
    X0000037  C0000049   2.740101383751e-03
    X0000037  C0000050  -2.740101383751e-03
    X0000037  C0000051   8.728696427627e-03
    X0000037  C0000052  -8.728696427627e-03
    X0000037  C0000053   9.282575420925e-04
    X0000037  C0000054  -9.282575420925e-04
    X0000038  C0000000   1.000000000000e+00
    X0000038  C0000029  -3.030303030303e-02
    X0000038  C0000030   3.030303030303e-02
    X0000038  C0000049   2.603096314564e-03
    X0000038  C0000050  -2.603096314564e-03
    X0000038  C0000051   7.205566155744e-04
    X0000038  C0000052  -7.205566155744e-04
    X0000038  C0000053   1.888855971955e-03
    X0000038  C0000054  -1.888855971955e-03
    X0000039  C0000000   1.000000000000e+00
    X0000039  C0000031  -3.333333333333e-01
    X0000039  C0000032   3.333333333333e-01
    X0000039  C0000049   2.740101383751e-03
    X0000039  C0000050  -2.740101383751e-03
    X0000039  C0000051   7.548197147122e-03
    X0000039  C0000052  -7.548197147122e-03
    X0000039  C0000053   2.815879129018e-03
    X0000039  C0000054  -2.815879129018e-03
    X0000040  C0000000   1.000000000000e+00
    X0000040  C0000033  -1.000000000000e+00
    X0000040  C0000034   1.000000000000e+00
    X0000040  C0000049   2.740101383751e-03
    X0000040  C0000050  -2.740101383751e-03
    X0000040  C0000051   2.373821940499e-02
    X0000040  C0000052  -2.373821940499e-02
    X0000040  C0000053   4.145064928653e-04
    X0000040  C0000054  -4.145064928653e-04
    X0000040  C0000059   1.000000000000e+00
    X0000040  C0000060   1.000000000000e+00
    X0000041  C0000000   1.000000000000e+00
    X0000041  C0000035  -2.500000000000e-01
    X0000041  C0000036   2.500000000000e-01
    X0000041  C0000049   2.740101383751e-03
    X0000041  C0000050  -2.740101383751e-03
    X0000041  C0000051   1.019559800081e-02
    X0000041  C0000052  -1.019559800081e-02
    X0000041  C0000053   4.120377228065e-04
    X0000041  C0000054  -4.120377228065e-04
    X0000041  C0000063   1.000000000000e+00
    X0000041  C0000064   1.000000000000e+00
    X0000042  C0000000   1.000000000000e+00
    X0000042  C0000037  -2.857142857143e-02
    X0000042  C0000038   2.857142857143e-02
    X0000042  C0000049   2.877106452939e-03
    X0000042  C0000050  -2.877106452939e-03
    X0000042  C0000051   5.501512966631e-04
    X0000042  C0000052  -5.501512966631e-04
    X0000042  C0000053   2.595171085765e-03
    X0000042  C0000054  -2.595171085765e-03
    X0000043  C0000000   1.000000000000e+00
    X0000043  C0000039  -3.333333333333e-01
    X0000043  C0000040   3.333333333333e-01
    X0000043  C0000049   2.877106452939e-03
    X0000043  C0000050  -2.877106452939e-03
    X0000043  C0000051   1.283359369446e-02
    X0000043  C0000052  -1.283359369446e-02
    X0000043  C0000053   2.804177158939e-03
    X0000043  C0000054  -2.804177158939e-03
    X0000044  C0000000   1.000000000000e+00
    X0000044  C0000041  -1.000000000000e+00
    X0000044  C0000042   1.000000000000e+00
    X0000044  C0000049   2.877106452939e-03
    X0000044  C0000050  -2.877106452939e-03
    X0000044  C0000051   1.914900696174e-02
    X0000044  C0000052  -1.914900696174e-02
    X0000044  C0000053   1.880857156964e-03
    X0000044  C0000054  -1.880857156964e-03
    X0000044  C0000071   1.000000000000e+00
    X0000044  C0000072   1.000000000000e+00
    X0000045  C0000000   1.000000000000e+00
    X0000045  C0000043  -2.857142857143e-02
    X0000045  C0000044   2.857142857143e-02
    X0000045  C0000049   2.740101383751e-03
    X0000045  C0000050  -2.740101383751e-03
    X0000045  C0000051   7.727400841549e-04
    X0000045  C0000052  -7.727400841549e-04
    X0000045  C0000053   3.573445909248e-03
    X0000045  C0000054  -3.573445909248e-03
    X0000046  C0000000   1.000000000000e+00
    X0000046  C0000045  -4.545454545455e-02
    X0000046  C0000046   4.545454545455e-02
    X0000046  C0000049   2.877106452939e-03
    X0000046  C0000050  -2.877106452939e-03
    X0000046  C0000051   1.183229810838e-03
    X0000046  C0000052  -1.183229810838e-03
    X0000046  C0000053   4.795635214536e-03
    X0000046  C0000054  -4.795635214536e-03
    X0000047  C0000000   1.000000000000e+00
    X0000047  C0000047  -6.666666666667e-02
    X0000047  C0000048   6.666666666667e-02
    X0000047  C0000049   2.740101383751e-03
    X0000047  C0000050  -2.740101383751e-03
    X0000047  C0000051   4.303416935093e-03
    X0000047  C0000052  -4.303416935093e-03
    X0000047  C0000053   2.036044042858e-03
    X0000047  C0000054  -2.036044042858e-03
    X0000047  OBJ        1.000000000000e+00
    X0000048  C0000049  -1.000000000000e+00
    X0000048  C0000050  -1.000000000000e+00
    X0000048  C0000051  -1.000000000000e+00
    X0000048  C0000052  -1.000000000000e+00
    X0000048  C0000053  -1.000000000000e+00
    X0000048  C0000054  -1.000000000000e+00
    X0000048  C0000055   1.000000000000e+00
RHS
    RHS       C0000000   3.650000000000e+02
    RHS       C0000001  -1.000000000000e+00
    RHS       C0000002   1.000000000000e+00
    RHS       C0000003  -1.000000000000e+00
    RHS       C0000004   1.000000000000e+00
    RHS       C0000005  -1.000000000000e+00
    RHS       C0000006   1.000000000000e+00
    RHS       C0000007  -1.000000000000e+00
    RHS       C0000008   1.000000000000e+00
    RHS       C0000009  -1.000000000000e+00
    RHS       C0000010   1.000000000000e+00
    RHS       C0000011  -1.000000000000e+00
    RHS       C0000012   1.000000000000e+00
    RHS       C0000013  -1.000000000000e+00
    RHS       C0000014   1.000000000000e+00
    RHS       C0000015  -1.000000000000e+00
    RHS       C0000016   1.000000000000e+00
    RHS       C0000017  -1.000000000000e+00
    RHS       C0000018   1.000000000000e+00
    RHS       C0000019  -1.000000000000e+00
    RHS       C0000020   1.000000000000e+00
    RHS       C0000021  -1.000000000000e+00
    RHS       C0000022   1.000000000000e+00
    RHS       C0000023  -1.000000000000e+00
    RHS       C0000024   1.000000000000e+00
    RHS       C0000025  -1.000000000000e+00
    RHS       C0000026   1.000000000000e+00
    RHS       C0000027  -1.000000000000e+00
    RHS       C0000028   1.000000000000e+00
    RHS       C0000029  -1.000000000000e+00
    RHS       C0000030   1.000000000000e+00
    RHS       C0000031  -1.000000000000e+00
    RHS       C0000032   1.000000000000e+00
    RHS       C0000033  -1.000000000000e+00
    RHS       C0000034   1.000000000000e+00
    RHS       C0000035  -1.000000000000e+00
    RHS       C0000036   1.000000000000e+00
    RHS       C0000037  -1.000000000000e+00
    RHS       C0000038   1.000000000000e+00
    RHS       C0000039  -1.000000000000e+00
    RHS       C0000040   1.000000000000e+00
    RHS       C0000041  -1.000000000000e+00
    RHS       C0000042   1.000000000000e+00
    RHS       C0000043  -1.000000000000e+00
    RHS       C0000044   1.000000000000e+00
    RHS       C0000045  -1.000000000000e+00
    RHS       C0000046   1.000000000000e+00
    RHS       C0000047  -1.000000000000e+00
    RHS       C0000048   1.000000000000e+00
    RHS       C0000049   1.000000000000e+00
    RHS       C0000050  -1.000000000000e+00
    RHS       C0000051   1.000000000000e+00
    RHS       C0000052  -1.000000000000e+00
    RHS       C0000053   1.000000000000e+00
    RHS       C0000054  -1.000000000000e+00
    RHS       C0000055   1.000000000000e-06
    RHS       C0000056   3.225554988713e+00
    RHS       C0000057   2.199997177558e+01
    RHS       C0000058   2.199997377558e+01
    RHS       C0000059   9.999989747234e-01
    RHS       C0000060   1.000000974723e+00
    RHS       C0000061   1.600000000000e+01
    RHS       C0000062   1.600000100000e+01
    RHS       C0000063   3.999998916272e+00
    RHS       C0000064   4.000000916272e+00
    RHS       C0000065   3.499999778371e+01
    RHS       C0000066   3.499999978371e+01
    RHS       C0000067   1.999998960946e+00
    RHS       C0000068   2.000000960946e+00
    RHS       C0000069   3.999998928400e+00
    RHS       C0000070   4.000000928400e+00
    RHS       C0000071   9.999989774246e-01
    RHS       C0000072   1.000000977425e+00
    RHS       C0000073   1.399999810791e+01
    RHS       C0000074   1.400000000000e+01
    RHS       C0000075   3.097113519241e+01
    RHS       C0000076   3.097113719241e+01
BOUNDS
 LO BND       X0000024   9.000000000000e+00
 UP BND       X0000024   3.600000000000e+01
 LO BND       X0000025   1.700000000000e+01
 UP BND       X0000025   6.800000000000e+01
 LO BND       X0000026   7.500000000000e+00
 UP BND       X0000026   3.000000000000e+01
 LO BND       X0000027   2.500000000000e+00
 UP BND       X0000027   1.000000000000e+01
 LO BND       X0000028   1.000000000000e+00
 UP BND       X0000028   4.000000000000e+00
 LO BND       X0000029   1.500000000000e+00
 UP BND       X0000029   6.000000000000e+00
 LO BND       X0000030   9.500000000000e+00
 UP BND       X0000030   3.800000000000e+01
 LO BND       X0000031   1.100000000000e+01
 UP BND       X0000031   4.400000000000e+01
 LO BND       X0000032   1.600000000000e+01
 UP BND       X0000032   6.400000000000e+01
 LO BND       X0000033   3.500000000000e+00
 UP BND       X0000033   1.400000000000e+01
 LO BND       X0000034   1.750000000000e+01
 UP BND       X0000034   7.000000000000e+01
 LO BND       X0000035   2.000000000000e+00
 UP BND       X0000035   8.000000000000e+00
 LO BND       X0000036   6.000000000000e+00
 UP BND       X0000036   2.400000000000e+01
 LO BND       X0000037   2.500000000000e+00
 UP BND       X0000037   1.000000000000e+01
 LO BND       X0000038   1.650000000000e+01
 UP BND       X0000038   6.600000000000e+01
 LO BND       X0000039   1.500000000000e+00
 UP BND       X0000039   6.000000000000e+00
 LO BND       X0000040   5.000000000000e-01
 UP BND       X0000040   2.000000000000e+00
 LO BND       X0000041   2.000000000000e+00
 UP BND       X0000041   8.000000000000e+00
 LO BND       X0000042   1.750000000000e+01
 UP BND       X0000042   7.000000000000e+01
 LO BND       X0000043   1.500000000000e+00
 UP BND       X0000043   6.000000000000e+00
 LO BND       X0000044   5.000000000000e-01
 UP BND       X0000044   2.000000000000e+00
 LO BND       X0000045   1.750000000000e+01
 UP BND       X0000045   7.000000000000e+01
 LO BND       X0000046   1.100000000000e+01
 UP BND       X0000046   4.400000000000e+01
 LO BND       X0000047   7.500000000000e+00
 UP BND       X0000047   3.000000000000e+01
ENDATA
