*SENSE:Minimize
NAME          independent_energy_feasibility
ROWS
 N  OBJ
 E  _C1
 L  _C2
 L  _C3
 L  _C4
 L  _C5
 L  _C6
 L  _C7
COLUMNS
    t         _C2       -1.000000000000e+00
    t         _C3       -1.000000000000e+00
    t         _C4       -1.000000000000e+00
    t         _C5       -1.000000000000e+00
    t         _C6       -1.000000000000e+00
    t         _C7       -1.000000000000e+00
    t         OBJ        1.000000000000e+00
    w_000     _C1        1.000000000000e+00
    w_000     _C2        2.740101383751e-03
    w_000     _C3       -2.740101383751e-03
    w_000     _C4        1.099796939561e-03
    w_000     _C5       -1.099796939561e-03
    w_000     _C6        1.151088727596e-03
    w_000     _C7       -1.151088727596e-03
    w_001     _C1        1.000000000000e+00
    w_001     _C2        2.740101383751e-03
    w_001     _C3       -2.740101383751e-03
    w_001     _C4        1.448596906875e-03
    w_001     _C5       -1.448596906875e-03
    w_001     _C6        3.427887226584e-03
    w_001     _C7       -3.427887226584e-03
    w_002     _C1        1.000000000000e+00
    w_002     _C2        2.740101383751e-03
    w_002     _C3       -2.740101383751e-03
    w_002     _C4        1.047330304872e-02
    w_002     _C5       -1.047330304872e-02
    w_002     _C6        4.213844862490e-03
    w_002     _C7       -4.213844862490e-03
    w_003     _C1        1.000000000000e+00
    w_003     _C2        2.603096314564e-03
    w_003     _C3       -2.603096314564e-03
    w_003     _C4        1.083919411330e-02
    w_003     _C5       -1.083919411330e-02
    w_003     _C6        7.060188614032e-04
    w_003     _C7       -7.060188614032e-04
    w_004     _C1        1.000000000000e+00
    w_004     _C2        2.877106452939e-03
    w_004     _C3       -2.877106452939e-03
    w_004     _C4        1.072744463117e-02
    w_004     _C5       -1.072744463117e-02
    w_004     _C6        1.075099985187e-03
    w_004     _C7       -1.075099985187e-03
    w_005     _C1        1.000000000000e+00
    w_005     _C2        2.877106452939e-03
    w_005     _C3       -2.877106452939e-03
    w_005     _C4        1.571733711805e-02
    w_005     _C5       -1.571733711805e-02
    w_005     _C6        1.279316644448e-03
    w_005     _C7       -1.279316644448e-03
    w_006     _C1        1.000000000000e+00
    w_006     _C2        2.877106452939e-03
    w_006     _C3       -2.877106452939e-03
    w_006     _C4        4.653834994457e-03
    w_006     _C5       -4.653834994457e-03
    w_006     _C6        1.984101120822e-03
    w_006     _C7       -1.984101120822e-03
    w_007     _C1        1.000000000000e+00
    w_007     _C2        2.740101383751e-03
    w_007     _C3       -2.740101383751e-03
    w_007     _C4        5.350929275320e-03
    w_007     _C5       -5.350929275320e-03
    w_007     _C6        3.874142102405e-03
    w_007     _C7       -3.874142102405e-03
    w_008     _C1        1.000000000000e+00
    w_008     _C2        2.740101383751e-03
    w_008     _C3       -2.740101383751e-03
    w_008     _C4        5.045413270317e-04
    w_008     _C5       -5.045413270317e-04
    w_008     _C6        2.349429714116e-03
    w_008     _C7       -2.349429714116e-03
    w_009     _C1        1.000000000000e+00
    w_009     _C2        2.877106452939e-03
    w_009     _C3       -2.877106452939e-03
    w_009     _C4        5.003241746289e-03
    w_009     _C5       -5.003241746289e-03
    w_009     _C6        3.002073766849e-03
    w_009     _C7       -3.002073766849e-03
    w_010     _C1        1.000000000000e+00
    w_010     _C2        2.740101383751e-03
    w_010     _C3       -2.740101383751e-03
    w_010     _C4        3.857632575591e-03
    w_010     _C5       -3.857632575591e-03
    w_010     _C6        8.850046906631e-04
    w_010     _C7       -8.850046906631e-04
    w_011     _C1        1.000000000000e+00
    w_011     _C2        2.740101383751e-03
    w_011     _C3       -2.740101383751e-03
    w_011     _C4        4.494250666123e-04
    w_011     _C5       -4.494250666123e-04
    w_011     _C6        4.605836172419e-03
    w_011     _C7       -4.605836172419e-03
RHS
    RHS       _C1        3.650000000000e+02
    RHS       _C2        1.000000000000e+00
    RHS       _C3       -1.000000000000e+00
    RHS       _C4        1.000000000000e+00
    RHS       _C5       -1.000000000000e+00
    RHS       _C6        1.000000000000e+00
    RHS       _C7       -1.000000000000e+00
BOUNDS
 LO BND       w_000      2.750000000000e+01
 UP BND       w_000      1.100000000000e+02
 LO BND       w_001      3.250000000000e+01
 UP BND       w_001      1.300000000000e+02
 LO BND       w_002      4.000000000000e+00
 UP BND       w_002      1.600000000000e+01
 LO BND       w_003      5.000000000000e+00
 UP BND       w_003      2.000000000000e+01
 LO BND       w_004      5.500000000000e+00
 UP BND       w_004      2.200000000000e+01
 LO BND       w_005      3.000000000000e+00
 UP BND       w_005      1.200000000000e+01
 LO BND       w_006      1.050000000000e+01
 UP BND       w_006      4.200000000000e+01
 LO BND       w_007      9.000000000000e+00
 UP BND       w_007      3.600000000000e+01
 LO BND       w_008      4.050000000000e+01
 UP BND       w_008      1.620000000000e+02
 LO BND       w_009      4.000000000000e+00
 UP BND       w_009      1.600000000000e+01
 LO BND       w_010      1.200000000000e+01
 UP BND       w_010      4.800000000000e+01
 LO BND       w_011      2.900000000000e+01
 UP BND       w_011      1.160000000000e+02
ENDATA
