\* independent_energy_feasibility *\
Minimize
OBJ: t
Subject To
_C1: w_000 + w_001 + w_002 + w_003 + w_004 + w_005 + w_006 + w_007 + w_008
 + w_009 + w_010 + w_011 = 365
_C2: - t + 0.00274010138375 w_000 + 0.00274010138375 w_001
 + 0.00274010138375 w_002 + 0.00260309631456 w_003 + 0.00287710645294 w_004
 + 0.00287710645294 w_005 + 0.00287710645294 w_006 + 0.00274010138375 w_007
 + 0.00274010138375 w_008 + 0.00287710645294 w_009 + 0.00274010138375 w_010
 + 0.00274010138375 w_011 <= 1
_C3: - t - 0.00274010138375 w_000 - 0.00274010138375 w_001
 - 0.00274010138375 w_002 - 0.00260309631456 w_003 - 0.00287710645294 w_004
 - 0.00287710645294 w_005 - 0.00287710645294 w_006 - 0.00274010138375 w_007
 - 0.00274010138375 w_008 - 0.00287710645294 w_009 - 0.00274010138375 w_010
 - 0.00274010138375 w_011 <= -1
_C4: - t + 0.00109979693956 w_000 + 0.00144859690688 w_001
 + 0.0104733030487 w_002 + 0.0108391941133 w_003 + 0.0107274446312 w_004
 + 0.0157173371181 w_005 + 0.00465383499446 w_006 + 0.00535092927532 w_007
 + 0.000504541327032 w_008 + 0.00500324174629 w_009 + 0.00385763257559 w_010
 + 0.000449425066612 w_011 <= 1
_C5: - t - 0.00109979693956 w_000 - 0.00144859690688 w_001
 - 0.0104733030487 w_002 - 0.0108391941133 w_003 - 0.0107274446312 w_004
 - 0.0157173371181 w_005 - 0.00465383499446 w_006 - 0.00535092927532 w_007
 - 0.000504541327032 w_008 - 0.00500324174629 w_009 - 0.00385763257559 w_010
 - 0.000449425066612 w_011 <= -1
_C6: - t + 0.0011510887276 w_000 + 0.00342788722658 w_001
 + 0.00421384486249 w_002 + 0.000706018861403 w_003 + 0.00107509998519 w_004
 + 0.00127931664445 w_005 + 0.00198410112082 w_006 + 0.0038741421024 w_007
 + 0.00234942971412 w_008 + 0.00300207376685 w_009 + 0.000885004690663 w_010
 + 0.00460583617242 w_011 <= 1
_C7: - t - 0.0011510887276 w_000 - 0.00342788722658 w_001
 - 0.00421384486249 w_002 - 0.000706018861403 w_003 - 0.00107509998519 w_004
 - 0.00127931664445 w_005 - 0.00198410112082 w_006 - 0.0038741421024 w_007
 - 0.00234942971412 w_008 - 0.00300207376685 w_009 - 0.000885004690663 w_010
 - 0.00460583617242 w_011 <= -1
Bounds
 27.5 <= w_000 <= 110
 32.5 <= w_001 <= 130
 4 <= w_002 <= 16
 5 <= w_003 <= 20
 5.5 <= w_004 <= 22
 3 <= w_005 <= 12
 10.5 <= w_006 <= 42
 9 <= w_007 <= 36
 40.5 <= w_008 <= 162
 4 <= w_009 <= 16
 12 <= w_010 <= 48
 29 <= w_011 <= 116
End
