\* U11R08_energy_weights *\
Minimize
OBJ: w_002
Subject To
_C1: d_000 - 0.0555555555556 w_000 >= -1
_C10: d_004 + 0.5 w_004 >= 1
_C11: d_005 - 0.333333333333 w_005 >= -1
_C12: d_005 + 0.333333333333 w_005 >= 1
_C13: d_006 - 0.0526315789474 w_006 >= -1
_C14: d_006 + 0.0526315789474 w_006 >= 1
_C15: d_007 - 0.0454545454545 w_007 >= -1
_C16: d_007 + 0.0454545454545 w_007 >= 1
_C17: d_008 - 0.03125 w_008 >= -1
_C18: d_008 + 0.03125 w_008 >= 1
_C19: d_009 - 0.142857142857 w_009 >= -1
_C2: d_000 + 0.0555555555556 w_000 >= 1
_C20: d_009 + 0.142857142857 w_009 >= 1
_C21: d_010 - 0.0285714285714 w_010 >= -1
_C22: d_010 + 0.0285714285714 w_010 >= 1
_C23: d_011 - 0.25 w_011 >= -1
_C24: d_011 + 0.25 w_011 >= 1
_C25: d_012 - 0.0833333333333 w_012 >= -1
_C26: d_012 + 0.0833333333333 w_012 >= 1
_C27: d_013 - 0.2 w_013 >= -1
_C28: d_013 + 0.2 w_013 >= 1
_C29: d_014 - 0.030303030303 w_014 >= -1
_C3: d_001 - 0.0294117647059 w_001 >= -1
_C30: d_014 + 0.030303030303 w_014 >= 1
_C31: d_015 - 0.333333333333 w_015 >= -1
_C32: d_015 + 0.333333333333 w_015 >= 1
_C33: d_016 - w_016 >= -1
_C34: d_016 + w_016 >= 1
_C35: d_017 - 0.25 w_017 >= -1
_C36: d_017 + 0.25 w_017 >= 1
_C37: d_018 - 0.0285714285714 w_018 >= -1
_C38: d_018 + 0.0285714285714 w_018 >= 1
_C39: d_019 - 0.333333333333 w_019 >= -1
_C4: d_001 + 0.0294117647059 w_001 >= 1
_C40: d_019 + 0.333333333333 w_019 >= 1
_C41: d_020 - w_020 >= -1
_C42: d_020 + w_020 >= 1
_C43: d_021 - 0.0285714285714 w_021 >= -1
_C44: d_021 + 0.0285714285714 w_021 >= 1
_C45: d_022 - 0.0454545454545 w_022 >= -1
_C46: d_022 + 0.0454545454545 w_022 >= 1
_C47: d_023 - 0.0666666666667 w_023 >= -1
_C48: d_023 + 0.0666666666667 w_023 >= 1
_C49: 0.00274010138375 w_000 + 0.00260309631456 w_001 + 0.00274010138375 w_002
 + 0.00287710645294 w_003 + 0.00287710645294 w_004 + 0.00260309631456 w_005
 + 0.00274010138375 w_006 + 0.00274010138375 w_007 + 0.00287710645294 w_008
 + 0.00287710645294 w_009 + 0.00260309631456 w_010 + 0.00274010138375 w_011
 + 0.00287710645294 w_012 + 0.00274010138375 w_013 + 0.00260309631456 w_014
 + 0.00274010138375 w_015 + 0.00274010138375 w_016 + 0.00274010138375 w_017
 + 0.00287710645294 w_018 + 0.00287710645294 w_019 + 0.00287710645294 w_020
 + 0.00274010138375 w_021 + 0.00287710645294 w_022 + 0.00274010138375 w_023
 - worst_relative_error <= 1
_C5: d_002 - 0.0666666666667 w_002 >= -1
_C50: - 0.00274010138375 w_000 - 0.00260309631456 w_001
 - 0.00274010138375 w_002 - 0.00287710645294 w_003 - 0.00287710645294 w_004
 - 0.00260309631456 w_005 - 0.00274010138375 w_006 - 0.00274010138375 w_007
 - 0.00287710645294 w_008 - 0.00287710645294 w_009 - 0.00260309631456 w_010
 - 0.00274010138375 w_011 - 0.00287710645294 w_012 - 0.00274010138375 w_013
 - 0.00260309631456 w_014 - 0.00274010138375 w_015 - 0.00274010138375 w_016
 - 0.00274010138375 w_017 - 0.00287710645294 w_018 - 0.00287710645294 w_019
 - 0.00287710645294 w_020 - 0.00274010138375 w_021 - 0.00287710645294 w_022
 - 0.00274010138375 w_023 - worst_relative_error <= -1
_C51: 0.000853037902087 w_000 + 0.000412613472497 w_001
 + 0.00385763257559 w_002 + 0.0117551353438 w_003 + 0.0157173371181 w_004
 + 0.0148113067014 w_005 + 0.00406039973548 w_006 + 0.000160899028123 w_007
 + 3.29686254986e-05 w_008 + 0.0107274446312 w_009 + 0.000209846312606 w_010
 + 0.0103231238804 w_011 + 0.00460013456458 w_012 + 0.00872869642763 w_013
 + 0.000720556615574 w_014 + 0.00754819714712 w_015 + 0.023738219405 w_016
 + 0.0101955980008 w_017 + 0.000550151296663 w_018 + 0.0128335936945 w_019
 + 0.0191490069617 w_020 + 0.000772740084155 w_021 + 0.00118322981084 w_022
 + 0.00430341693509 w_023 - worst_relative_error <= 1
_C52: - 0.000853037902087 w_000 - 0.000412613472497 w_001
 - 0.00385763257559 w_002 - 0.0117551353438 w_003 - 0.0157173371181 w_004
 - 0.0148113067014 w_005 - 0.00406039973548 w_006 - 0.000160899028123 w_007
 - 3.29686254986e-05 w_008 - 0.0107274446312 w_009 - 0.000209846312606 w_010
 - 0.0103231238804 w_011 - 0.00460013456458 w_012 - 0.00872869642763 w_013
 - 0.000720556615574 w_014 - 0.00754819714712 w_015 - 0.023738219405 w_016
 - 0.0101955980008 w_017 - 0.000550151296663 w_018 - 0.0128335936945 w_019
 - 0.0191490069617 w_020 - 0.000772740084155 w_021 - 0.00118322981084 w_022
 - 0.00430341693509 w_023 - worst_relative_error <= -1
_C53: 0.003109169012 w_000 + 0.00467165358219 w_001 + 0.000885004690663 w_002
 + 0.000324198884116 w_003 + 0.00127931664445 w_004 + 0.00408561694564 w_005
 + 0.00420298227423 w_006 + 0.000749469214437 w_007 + 0.00110408334568 w_008
 + 0.00107509998519 w_009 + 0.00311583469116 w_010 + 0.00493961388436 w_011
 + 0.00201313385671 w_012 + 0.000928257542093 w_013 + 0.00188885597195 w_014
 + 0.00281587912902 w_015 + 0.000414506492865 w_016 + 0.000412037722806 w_017
 + 0.00259517108577 w_018 + 0.00280417715894 w_019 + 0.00188085715696 w_020
 + 0.00357344590925 w_021 + 0.00479563521454 w_022 + 0.00203604404286 w_023
 - worst_relative_error <= 1
_C54: - 0.003109169012 w_000 - 0.00467165358219 w_001
 - 0.000885004690663 w_002 - 0.000324198884116 w_003 - 0.00127931664445 w_004
 - 0.00408561694564 w_005 - 0.00420298227423 w_006 - 0.000749469214437 w_007
 - 0.00110408334568 w_008 - 0.00107509998519 w_009 - 0.00311583469116 w_010
 - 0.00493961388436 w_011 - 0.00201313385671 w_012 - 0.000928257542093 w_013
 - 0.00188885597195 w_014 - 0.00281587912902 w_015 - 0.000414506492865 w_016
 - 0.000412037722806 w_017 - 0.00259517108577 w_018 - 0.00280417715894 w_019
 - 0.00188085715696 w_020 - 0.00357344590925 w_021 - 0.00479563521454 w_022
 - 0.00203604404286 w_023 - worst_relative_error <= -1
_C55: w_007 >= 21.9999717756
_C56: w_007 <= 21.9999737756
_C57: w_016 >= 0.999998974723
_C58: w_016 <= 1.00000097472
_C59: w_008 >= 16
_C6: d_002 + 0.0666666666667 w_002 >= 1
_C60: w_008 <= 16.000001
_C61: w_017 >= 3.99999891627
_C62: w_017 <= 4.00000091627
_C63: w_010 >= 34.9999977837
_C64: w_010 <= 34.9999997837
_C65: w_004 >= 1.99999896095
_C66: w_004 <= 2.00000096095
_C67: w_011 >= 3.9999989284
_C68: w_011 <= 4.0000009284
_C69: w_020 >= 0.999998977425
_C7: d_003 - 0.2 w_003 >= -1
_C70: w_020 <= 1.00000097742
_C71: w_009 >= 13.9999981079
_C72: w_009 <= 14
_C73: w_006 >= 30.9711351924
_C74: w_006 <= 30.9711371924
_C75: w_023 >= 18.0215884589
_C76: w_023 <= 18.0215904589
_C77: w_005 >= 2.99999898614
_C78: w_005 <= 3.00000098614
_C79: w_012 >= 11.9999989341
_C8: d_003 + 0.2 w_003 >= 1
_C80: w_012 <= 12.0000009341
_C81: w_022 >= 21.9999986961
_C82: w_022 <= 22.0000006961
_C83: w_000 >= 17.9999988517
_C84: w_000 <= 18.0000008517
_C85: w_001 >= 33.9999988311
_C86: w_001 <= 34.0000008311
_C87: w_013 >= 4.99999897534
_C88: w_013 <= 5.00000097534
_C89: w_018 >= 25.8448956385
_C9: d_004 - 0.5 w_004 >= -1
_C90: w_018 <= 25.8448976385
_C91: w_021 >= 34.999998754
_C92: w_021 <= 35.000000754
primary_optimum_band: worst_relative_error <= 1e-06
secondary_optimum_band: d_000 + d_001 + d_002 + d_003 + d_004 + d_005 + d_006
 + d_007 + d_008 + d_009 + d_010 + d_011 + d_012 + d_013 + d_014 + d_015
 + d_016 + d_017 + d_018 + d_019 + d_020 + d_021 + d_022 + d_023
 <= 3.22555498871
total_days: w_000 + w_001 + w_002 + w_003 + w_004 + w_005 + w_006 + w_007
 + w_008 + w_009 + w_010 + w_011 + w_012 + w_013 + w_014 + w_015 + w_016
 + w_017 + w_018 + w_019 + w_020 + w_021 + w_022 + w_023 = 365
Bounds
 9 <= w_000 <= 36
 17 <= w_001 <= 68
 7.5 <= w_002 <= 30
 2.5 <= w_003 <= 10
 1 <= w_004 <= 4
 1.5 <= w_005 <= 6
 9.5 <= w_006 <= 38
 11 <= w_007 <= 44
 16 <= w_008 <= 64
 3.5 <= w_009 <= 14
 17.5 <= w_010 <= 70
 2 <= w_011 <= 8
 6 <= w_012 <= 24
 2.5 <= w_013 <= 10
 16.5 <= w_014 <= 66
 1.5 <= w_015 <= 6
 0.5 <= w_016 <= 2
 2 <= w_017 <= 8
 17.5 <= w_018 <= 70
 1.5 <= w_019 <= 6
 0.5 <= w_020 <= 2
 17.5 <= w_021 <= 70
 11 <= w_022 <= 44
 7.5 <= w_023 <= 30
End
