\* U11R04_energy_weights *\
Minimize
OBJ: w_006
Subject To
_C1: d_000 - 0.125 w_000 >= -1
_C10: d_004 + 0.0181818181818 w_004 >= 1
_C11: d_005 - 0.142857142857 w_005 >= -1
_C12: d_005 + 0.142857142857 w_005 >= 1
_C13: d_006 - 0.015873015873 w_006 >= -1
_C14: d_006 + 0.015873015873 w_006 >= 1
_C15: d_007 - 0.0833333333333 w_007 >= -1
_C16: d_007 + 0.0833333333333 w_007 >= 1
_C17: d_008 - 0.0769230769231 w_008 >= -1
_C18: d_008 + 0.0769230769231 w_008 >= 1
_C19: d_009 - 0.1 w_009 >= -1
_C2: d_000 + 0.125 w_000 >= 1
_C20: d_009 + 0.1 w_009 >= 1
_C21: d_010 - 0.0217391304348 w_010 >= -1
_C22: d_010 + 0.0217391304348 w_010 >= 1
_C23: d_011 - 0.333333333333 w_011 >= -1
_C24: d_011 + 0.333333333333 w_011 >= 1
_C25: 0.00274010138375 w_000 + 0.00287710645294 w_001 + 0.00274010138375 w_002
 + 0.00274010138375 w_003 + 0.00274010138375 w_004 + 0.00274010138375 w_005
 + 0.00274010138375 w_006 + 0.00274010138375 w_007 + 0.00287710645294 w_008
 + 0.00260309631456 w_009 + 0.00274010138375 w_010 + 0.00287710645294 w_011
 - worst_relative_error <= 1
_C26: - 0.00274010138375 w_000 - 0.00287710645294 w_001
 - 0.00274010138375 w_002 - 0.00274010138375 w_003 - 0.00274010138375 w_004
 - 0.00274010138375 w_005 - 0.00274010138375 w_006 - 0.00274010138375 w_007
 - 0.00287710645294 w_008 - 0.00260309631456 w_009 - 0.00274010138375 w_010
 - 0.00287710645294 w_011 - worst_relative_error <= -1
_C27: 0.00845068798746 w_000 + 0.00460013456458 w_001
 + 0.000449425066612 w_002 + 0.00020438525194 w_003 + 0.00030177416714 w_004
 + 0.0101955980008 w_005 + 0.00116189122194 w_006 + 0.0104733030487 w_007
 + 0.0051967048769 w_008 + 0.0108391941133 w_009 + 0.000772740084155 w_010
 + 0.0191490069617 w_011 - worst_relative_error <= 1
_C28: - 0.00845068798746 w_000 - 0.00460013456458 w_001
 - 0.000449425066612 w_002 - 0.00020438525194 w_003 - 0.00030177416714 w_004
 - 0.0101955980008 w_005 - 0.00116189122194 w_006 - 0.0104733030487 w_007
 - 0.0051967048769 w_008 - 0.0108391941133 w_009 - 0.000772740084155 w_010
 - 0.0191490069617 w_011 - worst_relative_error <= -1
_C29: 0.00130425122204 w_000 + 0.00201313385671 w_001 + 0.00460583617242 w_002
 + 0.0018821902928 w_003 + 0.00294637831432 w_004 + 0.000412037722806 w_005
 + 0.0010210339209 w_006 + 0.00421384486249 w_007 + 0.00369081123784 w_008
 + 0.000706018861403 w_009 + 0.00357344590925 w_010 + 0.00188085715696 w_011
 - worst_relative_error <= 1
_C3: d_001 - 0.04 w_001 >= -1
_C30: - 0.00130425122204 w_000 - 0.00201313385671 w_001
 - 0.00460583617242 w_002 - 0.0018821902928 w_003 - 0.00294637831432 w_004
 - 0.000412037722806 w_005 - 0.0010210339209 w_006 - 0.00421384486249 w_007
 - 0.00369081123784 w_008 - 0.000706018861403 w_009 - 0.00357344590925 w_010
 - 0.00188085715696 w_011 - worst_relative_error <= -1
_C31: w_000 >= 12.0558470479
_C32: w_000 <= 12.0558470499
_C33: w_003 >= 32.4448884222
_C34: w_003 <= 32.4448884242
_C35: w_009 >= 19.999999999
_C36: w_009 <= 20
_C37: w_005 >= 13.9999999982
_C38: w_005 <= 14
_C39: w_008 >= 6.5
_C4: d_001 + 0.04 w_001 >= 1
_C40: w_008 <= 6.500000001
_C41: w_004 >= 54.9999999984
_C42: w_004 <= 55.0000000004
_C43: w_011 >= 1.50000729786
_C44: w_011 <= 1.50000729986
_C45: w_007 >= 23.999999996
_C46: w_007 <= 23.999999998
_C47: w_001 >= 12.5
_C48: w_001 <= 12.500000001
_C49: w_002 >= 77.9992570689
_C5: d_002 - 0.0169491525424 w_002 >= -1
_C50: w_002 <= 77.9992570709
_C6: d_002 + 0.0169491525424 w_002 >= 1
_C7: d_003 - 0.015625 w_003 >= -1
_C8: d_003 + 0.015625 w_003 >= 1
_C9: d_004 - 0.0181818181818 w_004 >= -1
primary_optimum_band: worst_relative_error <= 0.000205508603729
secondary_optimum_band: d_000 + d_001 + d_002 + d_003 + d_004 + d_005 + d_006
 + d_007 + d_008 + d_009 + d_010 + d_011 <= 5.82204837541
total_days: w_000 + w_001 + w_002 + w_003 + w_004 + w_005 + w_006 + w_007
 + w_008 + w_009 + w_010 + w_011 = 365
Bounds
 4 <= w_000 <= 16
 12.5 <= w_001 <= 50
 29.5 <= w_002 <= 118
 32 <= w_003 <= 128
 27.5 <= w_004 <= 110
 3.5 <= w_005 <= 14
 31.5 <= w_006 <= 126
 6 <= w_007 <= 24
 6.5 <= w_008 <= 26
 5 <= w_009 <= 20
 23 <= w_010 <= 92
 1.5 <= w_011 <= 6
End
