*SENSE:Minimize
NAME          MODEL
ROWS
 N  OBJ
 E  C0000000
 G  C0000001
 G  C0000002
 G  C0000003
 G  C0000004
 G  C0000005
 G  C0000006
 G  C0000007
 G  C0000008
 G  C0000009
 G  C0000010
 G  C0000011
 G  C0000012
 G  C0000013
 G  C0000014
 G  C0000015
 G  C0000016
 G  C0000017
 G  C0000018
 G  C0000019
 G  C0000020
 G  C0000021
 G  C0000022
 G  C0000023
 G  C0000024
 G  C0000025
 G  C0000026
 G  C0000027
 G  C0000028
 G  C0000029
 G  C0000030
 G  C0000031
 G  C0000032
 G  C0000033
 G  C0000034
 G  C0000035
 G  C0000036
 G  C0000037
 G  C0000038
 G  C0000039
 G  C0000040
 G  C0000041
 G  C0000042
 G  C0000043
 G  C0000044
 G  C0000045
 G  C0000046
 G  C0000047
 G  C0000048
 G  C0000049
 G  C0000050
 G  C0000051
 G  C0000052
 G  C0000053
 G  C0000054
 G  C0000055
 G  C0000056
 G  C0000057
 G  C0000058
 G  C0000059
 G  C0000060
 G  C0000061
 G  C0000062
 G  C0000063
 G  C0000064
 G  C0000065
 G  C0000066
 G  C0000067
 G  C0000068
 G  C0000069
 G  C0000070
 G  C0000071
 G  C0000072
 G  C0000073
 G  C0000074
 G  C0000075
 G  C0000076
 G  C0000077
 G  C0000078
 G  C0000079
 G  C0000080
 G  C0000081
 G  C0000082
 G  C0000083
 G  C0000084
 G  C0000085
 G  C0000086
 G  C0000087
 G  C0000088
 G  C0000089
 G  C0000090
 G  C0000091
 G  C0000092
 G  C0000093
 G  C0000094
 G  C0000095
 G  C0000096
 L  C0000097
 L  C0000098
 L  C0000099
 L  C0000100
 L  C0000101
 L  C0000102
 L  C0000103
 L  C0000104
 G  C0000105
 L  C0000106
 G  C0000107
 L  C0000108
 G  C0000109
 L  C0000110
 G  C0000111
 L  C0000112
 G  C0000113
 L  C0000114
 G  C0000115
 L  C0000116
 G  C0000117
 L  C0000118
 G  C0000119
 L  C0000120
 G  C0000121
 L  C0000122
 G  C0000123
 L  C0000124
 G  C0000125
 L  C0000126
 G  C0000127
 L  C0000128
 G  C0000129
 L  C0000130
 G  C0000131
 L  C0000132
 G  C0000133
 L  C0000134
 G  C0000135
 L  C0000136
 G  C0000137
 L  C0000138
 G  C0000139
 L  C0000140
COLUMNS
    X0000000  C0000001   1.000000000000e+00
    X0000000  C0000002   1.000000000000e+00
    X0000000  C0000104   1.000000000000e+00
    X0000001  C0000003   1.000000000000e+00
    X0000001  C0000004   1.000000000000e+00
    X0000001  C0000104   1.000000000000e+00
    X0000002  C0000005   1.000000000000e+00
    X0000002  C0000006   1.000000000000e+00
    X0000002  C0000104   1.000000000000e+00
    X0000003  C0000007   1.000000000000e+00
    X0000003  C0000008   1.000000000000e+00
    X0000003  C0000104   1.000000000000e+00
    X0000004  C0000009   1.000000000000e+00
    X0000004  C0000010   1.000000000000e+00
    X0000004  C0000104   1.000000000000e+00
    X0000005  C0000011   1.000000000000e+00
    X0000005  C0000012   1.000000000000e+00
    X0000005  C0000104   1.000000000000e+00
    X0000006  C0000013   1.000000000000e+00
    X0000006  C0000014   1.000000000000e+00
    X0000006  C0000104   1.000000000000e+00
    X0000007  C0000015   1.000000000000e+00
    X0000007  C0000016   1.000000000000e+00
    X0000007  C0000104   1.000000000000e+00
    X0000008  C0000017   1.000000000000e+00
    X0000008  C0000018   1.000000000000e+00
    X0000008  C0000104   1.000000000000e+00
    X0000009  C0000019   1.000000000000e+00
    X0000009  C0000020   1.000000000000e+00
    X0000009  C0000104   1.000000000000e+00
    X0000010  C0000021   1.000000000000e+00
    X0000010  C0000022   1.000000000000e+00
    X0000010  C0000104   1.000000000000e+00
    X0000011  C0000023   1.000000000000e+00
    X0000011  C0000024   1.000000000000e+00
    X0000011  C0000104   1.000000000000e+00
    X0000012  C0000025   1.000000000000e+00
    X0000012  C0000026   1.000000000000e+00
    X0000012  C0000104   1.000000000000e+00
    X0000013  C0000027   1.000000000000e+00
    X0000013  C0000028   1.000000000000e+00
    X0000013  C0000104   1.000000000000e+00
    X0000014  C0000029   1.000000000000e+00
    X0000014  C0000030   1.000000000000e+00
    X0000014  C0000104   1.000000000000e+00
    X0000015  C0000031   1.000000000000e+00
    X0000015  C0000032   1.000000000000e+00
    X0000015  C0000104   1.000000000000e+00
    X0000016  C0000033   1.000000000000e+00
    X0000016  C0000034   1.000000000000e+00
    X0000016  C0000104   1.000000000000e+00
    X0000017  C0000035   1.000000000000e+00
    X0000017  C0000036   1.000000000000e+00
    X0000017  C0000104   1.000000000000e+00
    X0000018  C0000037   1.000000000000e+00
    X0000018  C0000038   1.000000000000e+00
    X0000018  C0000104   1.000000000000e+00
    X0000019  C0000039   1.000000000000e+00
    X0000019  C0000040   1.000000000000e+00
    X0000019  C0000104   1.000000000000e+00
    X0000020  C0000041   1.000000000000e+00
    X0000020  C0000042   1.000000000000e+00
    X0000020  C0000104   1.000000000000e+00
    X0000021  C0000043   1.000000000000e+00
    X0000021  C0000044   1.000000000000e+00
    X0000021  C0000104   1.000000000000e+00
    X0000022  C0000045   1.000000000000e+00
    X0000022  C0000046   1.000000000000e+00
    X0000022  C0000104   1.000000000000e+00
    X0000023  C0000047   1.000000000000e+00
    X0000023  C0000048   1.000000000000e+00
    X0000023  C0000104   1.000000000000e+00
    X0000024  C0000049   1.000000000000e+00
    X0000024  C0000050   1.000000000000e+00
    X0000024  C0000104   1.000000000000e+00
    X0000025  C0000051   1.000000000000e+00
    X0000025  C0000052   1.000000000000e+00
    X0000025  C0000104   1.000000000000e+00
    X0000026  C0000053   1.000000000000e+00
    X0000026  C0000054   1.000000000000e+00
    X0000026  C0000104   1.000000000000e+00
    X0000027  C0000055   1.000000000000e+00
    X0000027  C0000056   1.000000000000e+00
    X0000027  C0000104   1.000000000000e+00
    X0000028  C0000057   1.000000000000e+00
    X0000028  C0000058   1.000000000000e+00
    X0000028  C0000104   1.000000000000e+00
    X0000029  C0000059   1.000000000000e+00
    X0000029  C0000060   1.000000000000e+00
    X0000029  C0000104   1.000000000000e+00
    X0000030  C0000061   1.000000000000e+00
    X0000030  C0000062   1.000000000000e+00
    X0000030  C0000104   1.000000000000e+00
    X0000031  C0000063   1.000000000000e+00
    X0000031  C0000064   1.000000000000e+00
    X0000031  C0000104   1.000000000000e+00
    X0000032  C0000065   1.000000000000e+00
    X0000032  C0000066   1.000000000000e+00
    X0000032  C0000104   1.000000000000e+00
    X0000033  C0000067   1.000000000000e+00
    X0000033  C0000068   1.000000000000e+00
    X0000033  C0000104   1.000000000000e+00
    X0000034  C0000069   1.000000000000e+00
    X0000034  C0000070   1.000000000000e+00
    X0000034  C0000104   1.000000000000e+00
    X0000035  C0000071   1.000000000000e+00
    X0000035  C0000072   1.000000000000e+00
    X0000035  C0000104   1.000000000000e+00
    X0000036  C0000073   1.000000000000e+00
    X0000036  C0000074   1.000000000000e+00
    X0000036  C0000104   1.000000000000e+00
    X0000037  C0000075   1.000000000000e+00
    X0000037  C0000076   1.000000000000e+00
    X0000037  C0000104   1.000000000000e+00
    X0000038  C0000077   1.000000000000e+00
    X0000038  C0000078   1.000000000000e+00
    X0000038  C0000104   1.000000000000e+00
    X0000039  C0000079   1.000000000000e+00
    X0000039  C0000080   1.000000000000e+00
    X0000039  C0000104   1.000000000000e+00
    X0000040  C0000081   1.000000000000e+00
    X0000040  C0000082   1.000000000000e+00
    X0000040  C0000104   1.000000000000e+00
    X0000041  C0000083   1.000000000000e+00
    X0000041  C0000084   1.000000000000e+00
    X0000041  C0000104   1.000000000000e+00
    X0000042  C0000085   1.000000000000e+00
    X0000042  C0000086   1.000000000000e+00
    X0000042  C0000104   1.000000000000e+00
    X0000043  C0000087   1.000000000000e+00
    X0000043  C0000088   1.000000000000e+00
    X0000043  C0000104   1.000000000000e+00
    X0000044  C0000089   1.000000000000e+00
    X0000044  C0000090   1.000000000000e+00
    X0000044  C0000104   1.000000000000e+00
    X0000045  C0000091   1.000000000000e+00
    X0000045  C0000092   1.000000000000e+00
    X0000045  C0000104   1.000000000000e+00
    X0000046  C0000093   1.000000000000e+00
    X0000046  C0000094   1.000000000000e+00
    X0000046  C0000104   1.000000000000e+00
    X0000047  C0000095   1.000000000000e+00
    X0000047  C0000096   1.000000000000e+00
    X0000047  C0000104   1.000000000000e+00
    X0000048  C0000000   1.000000000000e+00
    X0000048  C0000001  -3.333333333333e-01
    X0000048  C0000002   3.333333333333e-01
    X0000048  C0000097   2.740101383751e-03
    X0000048  C0000098  -2.740101383751e-03
    X0000048  C0000099   1.019559800081e-02
    X0000048  C0000100  -1.019559800081e-02
    X0000048  C0000101   4.120377228065e-04
    X0000048  C0000102  -4.120377228065e-04
    X0000048  C0000117   1.000000000000e+00
    X0000048  C0000118   1.000000000000e+00
    X0000049  C0000000   1.000000000000e+00
    X0000049  C0000003  -1.000000000000e-01
    X0000049  C0000004   1.000000000000e-01
    X0000049  C0000097   2.740101383751e-03
    X0000049  C0000098  -2.740101383751e-03
    X0000049  C0000099   8.530379020870e-04
    X0000049  C0000100  -8.530379020870e-04
    X0000049  C0000101   3.109169011998e-03
    X0000049  C0000102  -3.109169011998e-03
    X0000050  C0000000   1.000000000000e+00
    X0000050  C0000005  -8.333333333333e-02
    X0000050  C0000006   8.333333333333e-02
    X0000050  C0000097   2.740101383751e-03
    X0000050  C0000098  -2.740101383751e-03
    X0000050  C0000099   1.512511542811e-03
    X0000050  C0000100  -1.512511542811e-03
    X0000050  C0000101   7.553942625784e-04
    X0000050  C0000102  -7.553942625784e-04
    X0000050  C0000105   1.000000000000e+00
    X0000050  C0000106   1.000000000000e+00
    X0000051  C0000000   1.000000000000e+00
    X0000051  C0000007  -5.000000000000e-02
    X0000051  C0000008   5.000000000000e-02
    X0000051  C0000097   2.603096314564e-03
    X0000051  C0000098  -2.603096314564e-03
    X0000051  C0000099   8.920743727694e-04
    X0000051  C0000100  -8.920743727694e-04
    X0000051  C0000101   4.043795980842e-03
    X0000051  C0000102  -4.043795980842e-03
    X0000051  C0000119   1.000000000000e+00
    X0000051  C0000120   1.000000000000e+00
    X0000052  C0000000   1.000000000000e+00
    X0000052  C0000009  -3.333333333333e-01
    X0000052  C0000010   3.333333333333e-01
    X0000052  C0000097   2.603096314564e-03
    X0000052  C0000098  -2.603096314564e-03
    X0000052  C0000099   1.315013295154e-02
    X0000052  C0000100  -1.315013295154e-02
    X0000052  C0000101   1.088530094307e-03
    X0000052  C0000102  -1.088530094307e-03
    X0000052  C0000109   1.000000000000e+00
    X0000052  C0000110   1.000000000000e+00
    X0000053  C0000000   1.000000000000e+00
    X0000053  C0000011  -2.500000000000e-01
    X0000053  C0000012   2.500000000000e-01
    X0000053  C0000097   2.740101383751e-03
    X0000053  C0000098  -2.740101383751e-03
    X0000053  C0000099   8.450687987457e-03
    X0000053  C0000100  -8.450687987457e-03
    X0000053  C0000101   1.304251222041e-03
    X0000053  C0000102  -1.304251222041e-03
    X0000053  C0000115   1.000000000000e+00
    X0000053  C0000116   1.000000000000e+00
    X0000054  C0000000   1.000000000000e+00
    X0000054  C0000013  -6.666666666667e-02
    X0000054  C0000014   6.666666666667e-02
    X0000054  C0000097   2.877106452939e-03
    X0000054  C0000098  -2.877106452939e-03
    X0000054  C0000099   6.522933572568e-04
    X0000054  C0000100  -6.522933572568e-04
    X0000054  C0000101   3.180368340493e-03
    X0000054  C0000102  -3.180368340493e-03
    X0000055  C0000000   1.000000000000e+00
    X0000055  C0000015  -5.000000000000e-01
    X0000055  C0000016   5.000000000000e-01
    X0000055  C0000097   2.740101383751e-03
    X0000055  C0000098  -2.740101383751e-03
    X0000055  C0000099   1.097400140713e-02
    X0000055  C0000100  -1.097400140713e-02
    X0000055  C0000101   2.466449414901e-03
    X0000055  C0000102  -2.466449414901e-03
    X0000056  C0000000   1.000000000000e+00
    X0000056  C0000017  -5.000000000000e-01
    X0000056  C0000018   5.000000000000e-01
    X0000056  C0000097   2.877106452939e-03
    X0000056  C0000098  -2.877106452939e-03
    X0000056  C0000099   5.003241746289e-03
    X0000056  C0000100  -5.003241746289e-03
    X0000056  C0000101   3.002073766849e-03
    X0000056  C0000102  -3.002073766849e-03
    X0000057  C0000000   1.000000000000e+00
    X0000057  C0000019  -5.000000000000e-02
    X0000057  C0000020   5.000000000000e-02
    X0000057  C0000097   2.740101383751e-03
    X0000057  C0000098  -2.740101383751e-03
    X0000057  C0000099   2.516133136209e-04
    X0000057  C0000100  -2.516133136209e-04
    X0000057  C0000101   2.672838591814e-03
    X0000057  C0000102  -2.672838591814e-03
    X0000057  C0000107   1.000000000000e+00
    X0000057  C0000108   1.000000000000e+00
    X0000058  C0000000   1.000000000000e+00
    X0000058  C0000021  -1.000000000000e+00
    X0000058  C0000022   1.000000000000e+00
    X0000058  C0000097   2.740101383751e-03
    X0000058  C0000098  -2.740101383751e-03
    X0000058  C0000099   2.373821940499e-02
    X0000058  C0000100  -2.373821940499e-02
    X0000058  C0000101   4.145064928653e-04
    X0000058  C0000102  -4.145064928653e-04
    X0000058  C0000111   1.000000000000e+00
    X0000058  C0000112   1.000000000000e+00
    X0000059  C0000000   1.000000000000e+00
    X0000059  C0000023  -2.000000000000e-01
    X0000059  C0000024   2.000000000000e-01
    X0000059  C0000097   2.603096314564e-03
    X0000059  C0000098  -2.603096314564e-03
    X0000059  C0000099   5.219964950104e-03
    X0000059  C0000100  -5.219964950104e-03
    X0000059  C0000101   3.741075396238e-03
    X0000059  C0000102  -3.741075396238e-03
    X0000060  C0000000   1.000000000000e+00
    X0000060  C0000025  -5.555555555556e-02
    X0000060  C0000026   5.555555555556e-02
    X0000060  C0000097   2.603096314564e-03
    X0000060  C0000098  -2.603096314564e-03
    X0000060  C0000099   3.569915583126e-05
    X0000060  C0000100  -3.569915583126e-05
    X0000060  C0000101   4.670616698761e-03
    X0000060  C0000102  -4.670616698761e-03
    X0000061  C0000000   1.000000000000e+00
    X0000061  C0000027  -4.545454545455e-02
    X0000061  C0000028   4.545454545455e-02
    X0000061  C0000097   2.603096314564e-03
    X0000061  C0000098  -2.603096314564e-03
    X0000061  C0000099   7.205566155744e-04
    X0000061  C0000100  -7.205566155744e-04
    X0000061  C0000101   1.888855971955e-03
    X0000061  C0000102  -1.888855971955e-03
    X0000062  C0000000   1.000000000000e+00
    X0000062  C0000029  -2.500000000000e-01
    X0000062  C0000030   2.500000000000e-01
    X0000062  C0000097   2.740101383751e-03
    X0000062  C0000098  -2.740101383751e-03
    X0000062  C0000099   1.032312388042e-02
    X0000062  C0000100  -1.032312388042e-02
    X0000062  C0000101   4.939613884363e-03
    X0000062  C0000102  -4.939613884363e-03
    X0000062  C0000137   1.000000000000e+00
    X0000062  C0000138   1.000000000000e+00
    X0000063  C0000000   1.000000000000e+00
    X0000063  C0000031  -1.000000000000e+00
    X0000063  C0000032   1.000000000000e+00
    X0000063  C0000097   2.740101383751e-03
    X0000063  C0000098  -2.740101383751e-03
    X0000063  C0000099   1.499627484871e-02
    X0000063  C0000100  -1.499627484871e-02
    X0000063  C0000101   3.140621142547e-03
    X0000063  C0000102  -3.140621142547e-03
    X0000063  C0000127   1.000000000000e+00
    X0000063  C0000128   1.000000000000e+00
    X0000064  C0000000   1.000000000000e+00
    X0000064  C0000033  -2.500000000000e-01
    X0000064  C0000034   2.500000000000e-01
    X0000064  C0000097   2.740101383751e-03
    X0000064  C0000098  -2.740101383751e-03
    X0000064  C0000099   8.728696427627e-03
    X0000064  C0000100  -8.728696427627e-03
    X0000064  C0000101   9.282575420925e-04
    X0000064  C0000102  -9.282575420925e-04
    X0000065  C0000000   1.000000000000e+00
    X0000065  C0000035  -8.333333333333e-02
    X0000065  C0000036   8.333333333333e-02
    X0000065  C0000097   2.603096314564e-03
    X0000065  C0000098  -2.603096314564e-03
    X0000065  C0000099   1.042759194833e-03
    X0000065  C0000100  -1.042759194833e-03
    X0000065  C0000101   3.091640744581e-03
    X0000065  C0000102  -3.091640744581e-03
    X0000066  C0000000   1.000000000000e+00
    X0000066  C0000037  -1.250000000000e-01
    X0000066  C0000038   1.250000000000e-01
    X0000066  C0000097   2.603096314564e-03
    X0000066  C0000098  -2.603096314564e-03
    X0000066  C0000099   4.766899176381e-03
    X0000066  C0000100  -4.766899176381e-03
    X0000066  C0000101   5.007603811781e-03
    X0000066  C0000102  -5.007603811781e-03
    X0000066  C0000135   1.000000000000e+00
    X0000066  C0000136   1.000000000000e+00
    X0000067  C0000000   1.000000000000e+00
    X0000067  C0000039  -5.555555555556e-02
    X0000067  C0000040   5.555555555556e-02
    X0000067  C0000097   2.877106452939e-03
    X0000067  C0000098  -2.877106452939e-03
    X0000067  C0000099   1.115472206286e-04
    X0000067  C0000100  -1.115472206286e-04
    X0000067  C0000101   2.156668147929e-03
    X0000067  C0000102  -2.156668147929e-03
    X0000067  C0000125   1.000000000000e+00
    X0000067  C0000126   1.000000000000e+00
    X0000068  C0000000   1.000000000000e+00
    X0000068  C0000041  -1.000000000000e+00
    X0000068  C0000042   1.000000000000e+00
    X0000068  C0000097   2.603096314564e-03
    X0000068  C0000098  -2.603096314564e-03
    X0000068  C0000099   1.574919330527e-02
    X0000068  C0000100  -1.574919330527e-02
    X0000068  C0000101   3.295314274428e-04
    X0000068  C0000102  -3.295314274428e-04
    X0000069  C0000000   1.000000000000e+00
    X0000069  C0000043  -5.000000000000e-01
    X0000069  C0000044   5.000000000000e-01
    X0000069  C0000097   2.877106452939e-03
    X0000069  C0000098  -2.877106452939e-03
    X0000069  C0000099   6.849484774209e-03
    X0000069  C0000100  -6.849484774209e-03
    X0000069  C0000101   2.343455290574e-03
    X0000069  C0000102  -2.343455290574e-03
    X0000070  C0000000   1.000000000000e+00
    X0000070  C0000045  -1.250000000000e-01
    X0000070  C0000046   1.250000000000e-01
    X0000070  C0000097   2.740101383751e-03
    X0000070  C0000098  -2.740101383751e-03
    X0000070  C0000099   4.093772883993e-03
    X0000070  C0000100  -4.093772883993e-03
    X0000070  C0000101   3.749962968449e-03
    X0000070  C0000102  -3.749962968449e-03
    X0000070  C0000131   1.000000000000e+00
    X0000070  C0000132   1.000000000000e+00
    X0000071  C0000000   1.000000000000e+00
    X0000071  C0000047  -3.333333333333e-01
    X0000071  C0000048   3.333333333333e-01
    X0000071  C0000097   2.877106452939e-03
    X0000071  C0000098  -2.877106452939e-03
    X0000071  C0000099   7.137808551192e-03
    X0000071  C0000100  -7.137808551192e-03
    X0000071  C0000101   4.614378116822e-03
    X0000071  C0000102  -4.614378116822e-03
    X0000071  C0000133   1.000000000000e+00
    X0000071  C0000134   1.000000000000e+00
    X0000072  C0000000   1.000000000000e+00
    X0000072  C0000049  -3.333333333333e-01
    X0000072  C0000050   3.333333333333e-01
    X0000072  C0000097   2.877106452939e-03
    X0000072  C0000098  -2.877106452939e-03
    X0000072  C0000099   1.072744463117e-02
    X0000072  C0000100  -1.072744463117e-02
    X0000072  C0000101   1.075099985187e-03
    X0000072  C0000102  -1.075099985187e-03
    X0000073  C0000000   1.000000000000e+00
    X0000073  C0000051  -2.500000000000e-01
    X0000073  C0000052   2.500000000000e-01
    X0000073  C0000097   2.603096314564e-03
    X0000073  C0000098  -2.603096314564e-03
    X0000073  C0000099   7.119503884887e-03
    X0000073  C0000100  -7.119503884887e-03
    X0000073  C0000101   1.840418703402e-03
    X0000073  C0000102  -1.840418703402e-03
    X0000074  C0000000   1.000000000000e+00
    X0000074  C0000053  -5.000000000000e-01
    X0000074  C0000054   5.000000000000e-01
    X0000074  C0000097   2.877106452939e-03
    X0000074  C0000098  -2.877106452939e-03
    X0000074  C0000099   1.571733711805e-02
    X0000074  C0000100  -1.571733711805e-02
    X0000074  C0000101   1.279316644448e-03
    X0000074  C0000102  -1.279316644448e-03
    X0000074  C0000129   1.000000000000e+00
    X0000074  C0000130   1.000000000000e+00
    X0000075  C0000000   1.000000000000e+00
    X0000075  C0000055  -2.000000000000e-01
    X0000075  C0000056   2.000000000000e-01
    X0000075  C0000097   2.603096314564e-03
    X0000075  C0000098  -2.603096314564e-03
    X0000075  C0000099   1.616372826207e-03
    X0000075  C0000100  -1.616372826207e-03
    X0000075  C0000101   1.366365476719e-03
    X0000075  C0000102  -1.366365476719e-03
    X0000076  C0000000   1.000000000000e+00
    X0000076  C0000057  -8.333333333333e-02
    X0000076  C0000058   8.333333333333e-02
    X0000076  C0000097   2.740101383751e-03
    X0000076  C0000098  -2.740101383751e-03
    X0000076  C0000099   1.586943777066e-03
    X0000076  C0000100  -1.586943777066e-03
    X0000076  C0000101   2.290672986718e-03
    X0000076  C0000102  -2.290672986718e-03
    X0000077  C0000000   1.000000000000e+00
    X0000077  C0000059  -1.000000000000e+00
    X0000077  C0000060   1.000000000000e+00
    X0000077  C0000097   2.877106452939e-03
    X0000077  C0000098  -2.877106452939e-03
    X0000077  C0000099   1.326997289392e-02
    X0000077  C0000100  -1.326997289392e-02
    X0000077  C0000101   2.084333185207e-03
    X0000077  C0000102  -2.084333185207e-03
    X0000078  C0000000   1.000000000000e+00
    X0000078  C0000061  -6.250000000000e-02
    X0000078  C0000062   6.250000000000e-02
    X0000078  C0000097   2.740101383751e-03
    X0000078  C0000098  -2.740101383751e-03
    X0000078  C0000099   1.631946962179e-03
    X0000078  C0000100  -1.631946962179e-03
    X0000078  C0000101   4.059497358416e-03
    X0000078  C0000102  -4.059497358416e-03
    X0000079  C0000000   1.000000000000e+00
    X0000079  C0000063  -2.000000000000e-01
    X0000079  C0000064   2.000000000000e-01
    X0000079  C0000097   2.877106452939e-03
    X0000079  C0000098  -2.877106452939e-03
    X0000079  C0000099   4.600134564580e-03
    X0000079  C0000100  -4.600134564580e-03
    X0000079  C0000101   2.013133856713e-03
    X0000079  C0000102  -2.013133856713e-03
    X0000080  C0000000   1.000000000000e+00
    X0000080  C0000065  -2.500000000000e-01
    X0000080  C0000066   2.500000000000e-01
    X0000080  C0000097   2.740101383751e-03
    X0000080  C0000098  -2.740101383751e-03
    X0000080  C0000099   4.929112904294e-03
    X0000080  C0000100  -4.929112904294e-03
    X0000080  C0000101   9.672147336197e-04
    X0000080  C0000102  -9.672147336197e-04
    X0000081  C0000000   1.000000000000e+00
    X0000081  C0000067  -6.250000000000e-02
    X0000081  C0000068   6.250000000000e-02
    X0000081  C0000097   2.740101383751e-03
    X0000081  C0000098  -2.740101383751e-03
    X0000081  C0000099   2.754801713438e-04
    X0000081  C0000100  -2.754801713438e-04
    X0000081  C0000101   1.144966177850e-03
    X0000081  C0000102  -1.144966177850e-03
    X0000082  C0000000   1.000000000000e+00
    X0000082  C0000069  -1.000000000000e-01
    X0000082  C0000070   1.000000000000e-01
    X0000082  C0000097   2.740101383751e-03
    X0000082  C0000098  -2.740101383751e-03
    X0000082  C0000099   2.989930714310e-03
    X0000082  C0000100  -2.989930714310e-03
    X0000082  C0000101   1.906779242581e-03
    X0000082  C0000102  -1.906779242581e-03
    X0000083  C0000000   1.000000000000e+00
    X0000083  C0000071  -1.000000000000e+00
    X0000083  C0000072   1.000000000000e+00
    X0000083  C0000097   2.603096314564e-03
    X0000083  C0000098  -2.603096314564e-03
    X0000083  C0000099   7.657721752689e-03
    X0000083  C0000100  -7.657721752689e-03
    X0000083  C0000101   2.123043499728e-03
    X0000083  C0000102  -2.123043499728e-03
    X0000083  OBJ        1.000000000000e+00
    X0000084  C0000000   1.000000000000e+00
    X0000084  C0000073  -1.000000000000e+00
    X0000084  C0000074   1.000000000000e+00
    X0000084  C0000097   2.603096314564e-03
    X0000084  C0000098  -2.603096314564e-03
    X0000084  C0000099   1.481130670136e-02
    X0000084  C0000100  -1.481130670136e-02
    X0000084  C0000101   4.085616945638e-03
    X0000084  C0000102  -4.085616945638e-03
    X0000085  C0000000   1.000000000000e+00
    X0000085  C0000075  -1.000000000000e+00
    X0000085  C0000076   1.000000000000e+00
    X0000085  C0000097   2.740101383751e-03
    X0000085  C0000098  -2.740101383751e-03
    X0000085  C0000099   1.173986460008e-02
    X0000085  C0000100  -1.173986460008e-02
    X0000085  C0000101   3.864810151582e-03
    X0000085  C0000102  -3.864810151582e-03
    X0000085  C0000121   1.000000000000e+00
    X0000085  C0000122   1.000000000000e+00
    X0000086  C0000000   1.000000000000e+00
    X0000086  C0000077  -5.263157894737e-02
    X0000086  C0000078   5.263157894737e-02
    X0000086  C0000097   2.603096314564e-03
    X0000086  C0000098  -2.603096314564e-03
    X0000086  C0000099   6.020313729845e-04
    X0000086  C0000100  -6.020313729845e-04
    X0000086  C0000101   3.244556362020e-03
    X0000086  C0000102  -3.244556362020e-03
    X0000086  C0000113   1.000000000000e+00
    X0000086  C0000114   1.000000000000e+00
    X0000087  C0000000   1.000000000000e+00
    X0000087  C0000079  -4.545454545455e-02
    X0000087  C0000080   4.545454545455e-02
    X0000087  C0000097   2.877106452939e-03
    X0000087  C0000098  -2.877106452939e-03
    X0000087  C0000099   8.999625715083e-04
    X0000087  C0000100  -8.999625715083e-04
    X0000087  C0000101   9.553646373377e-04
    X0000087  C0000102  -9.553646373377e-04
    X0000088  C0000000   1.000000000000e+00
    X0000088  C0000081  -2.500000000000e-01
    X0000088  C0000082   2.500000000000e-01
    X0000088  C0000097   2.740101383751e-03
    X0000088  C0000098  -2.740101383751e-03
    X0000088  C0000099   3.268040285233e-03
    X0000088  C0000100  -3.268040285233e-03
    X0000088  C0000101   4.491680244902e-04
    X0000088  C0000102  -4.491680244902e-04
    X0000088  C0000139   1.000000000000e+00
    X0000088  C0000140   1.000000000000e+00
    X0000089  C0000000   1.000000000000e+00
    X0000089  C0000083  -5.263157894737e-02
    X0000089  C0000084   5.263157894737e-02
    X0000089  C0000097   2.877106452939e-03
    X0000089  C0000098  -2.877106452939e-03
    X0000089  C0000099   1.183229810838e-03
    X0000089  C0000100  -1.183229810838e-03
    X0000089  C0000101   4.795635214536e-03
    X0000089  C0000102  -4.795635214536e-03
    X0000090  C0000000   1.000000000000e+00
    X0000090  C0000085  -1.000000000000e+00
    X0000090  C0000086   1.000000000000e+00
    X0000090  C0000097   2.877106452939e-03
    X0000090  C0000098  -2.877106452939e-03
    X0000090  C0000099   1.192705762400e-02
    X0000090  C0000100  -1.192705762400e-02
    X0000090  C0000101   1.165851972547e-03
    X0000090  C0000102  -1.165851972547e-03
    X0000090  C0000123   1.000000000000e+00
    X0000090  C0000124   1.000000000000e+00
    X0000091  C0000000   1.000000000000e+00
    X0000091  C0000087  -1.000000000000e+00
    X0000091  C0000088   1.000000000000e+00
    X0000091  C0000097   2.877106452939e-03
    X0000091  C0000098  -2.877106452939e-03
    X0000091  C0000099   1.220547058718e-02
    X0000091  C0000100  -1.220547058718e-02
    X0000091  C0000101   1.440774206290e-03
    X0000091  C0000102  -1.440774206290e-03
    X0000092  C0000000   1.000000000000e+00
    X0000092  C0000089  -7.692307692308e-02
    X0000092  C0000090   7.692307692308e-02
    X0000092  C0000097   2.740101383751e-03
    X0000092  C0000098  -2.740101383751e-03
    X0000092  C0000099   2.797782283490e-03
    X0000092  C0000100  -2.797782283490e-03
    X0000092  C0000101   3.760578679702e-03
    X0000092  C0000102  -3.760578679702e-03
    X0000093  C0000000   1.000000000000e+00
    X0000093  C0000091  -1.000000000000e+00
    X0000093  C0000092   1.000000000000e+00
    X0000093  C0000097   2.740101383751e-03
    X0000093  C0000098  -2.740101383751e-03
    X0000093  C0000099   8.746394309413e-03
    X0000093  C0000100  -8.746394309413e-03
    X0000093  C0000101   3.703155088135e-04
    X0000093  C0000102  -3.703155088135e-04
    X0000094  C0000000   1.000000000000e+00
    X0000094  C0000093  -2.500000000000e-01
    X0000094  C0000094   2.500000000000e-01
    X0000094  C0000097   2.603096314564e-03
    X0000094  C0000098  -2.603096314564e-03
    X0000094  C0000099   4.478373137892e-03
    X0000094  C0000100  -4.478373137892e-03
    X0000094  C0000101   4.603762405570e-04
    X0000094  C0000102  -4.603762405570e-04
    X0000095  C0000000   1.000000000000e+00
    X0000095  C0000095  -5.000000000000e-01
    X0000095  C0000096   5.000000000000e-01
    X0000095  C0000097   2.877106452939e-03
    X0000095  C0000098  -2.877106452939e-03
    X0000095  C0000099   8.018657410371e-03
    X0000095  C0000100  -8.018657410371e-03
    X0000095  C0000101   3.119044092233e-04
    X0000095  C0000102  -3.119044092233e-04
    X0000096  C0000097  -1.000000000000e+00
    X0000096  C0000098  -1.000000000000e+00
    X0000096  C0000099  -1.000000000000e+00
    X0000096  C0000100  -1.000000000000e+00
    X0000096  C0000101  -1.000000000000e+00
    X0000096  C0000102  -1.000000000000e+00
    X0000096  C0000103   1.000000000000e+00
RHS
    RHS       C0000000   3.650000000000e+02
    RHS       C0000001  -1.000000000000e+00
    RHS       C0000002   1.000000000000e+00
    RHS       C0000003  -1.000000000000e+00
    RHS       C0000004   1.000000000000e+00
    RHS       C0000005  -1.000000000000e+00
    RHS       C0000006   1.000000000000e+00
    RHS       C0000007  -1.000000000000e+00
    RHS       C0000008   1.000000000000e+00
    RHS       C0000009  -1.000000000000e+00
    RHS       C0000010   1.000000000000e+00
    RHS       C0000011  -1.000000000000e+00
    RHS       C0000012   1.000000000000e+00
    RHS       C0000013  -1.000000000000e+00
    RHS       C0000014   1.000000000000e+00
    RHS       C0000015  -1.000000000000e+00
    RHS       C0000016   1.000000000000e+00
    RHS       C0000017  -1.000000000000e+00
    RHS       C0000018   1.000000000000e+00
    RHS       C0000019  -1.000000000000e+00
    RHS       C0000020   1.000000000000e+00
    RHS       C0000021  -1.000000000000e+00
    RHS       C0000022   1.000000000000e+00
    RHS       C0000023  -1.000000000000e+00
    RHS       C0000024   1.000000000000e+00
    RHS       C0000025  -1.000000000000e+00
    RHS       C0000026   1.000000000000e+00
    RHS       C0000027  -1.000000000000e+00
    RHS       C0000028   1.000000000000e+00
    RHS       C0000029  -1.000000000000e+00
    RHS       C0000030   1.000000000000e+00
    RHS       C0000031  -1.000000000000e+00
    RHS       C0000032   1.000000000000e+00
    RHS       C0000033  -1.000000000000e+00
    RHS       C0000034   1.000000000000e+00
    RHS       C0000035  -1.000000000000e+00
    RHS       C0000036   1.000000000000e+00
    RHS       C0000037  -1.000000000000e+00
    RHS       C0000038   1.000000000000e+00
    RHS       C0000039  -1.000000000000e+00
    RHS       C0000040   1.000000000000e+00
    RHS       C0000041  -1.000000000000e+00
    RHS       C0000042   1.000000000000e+00
    RHS       C0000043  -1.000000000000e+00
    RHS       C0000044   1.000000000000e+00
    RHS       C0000045  -1.000000000000e+00
    RHS       C0000046   1.000000000000e+00
    RHS       C0000047  -1.000000000000e+00
    RHS       C0000048   1.000000000000e+00
    RHS       C0000049  -1.000000000000e+00
    RHS       C0000050   1.000000000000e+00
    RHS       C0000051  -1.000000000000e+00
    RHS       C0000052   1.000000000000e+00
    RHS       C0000053  -1.000000000000e+00
    RHS       C0000054   1.000000000000e+00
    RHS       C0000055  -1.000000000000e+00
    RHS       C0000056   1.000000000000e+00
    RHS       C0000057  -1.000000000000e+00
    RHS       C0000058   1.000000000000e+00
    RHS       C0000059  -1.000000000000e+00
    RHS       C0000060   1.000000000000e+00
    RHS       C0000061  -1.000000000000e+00
    RHS       C0000062   1.000000000000e+00
    RHS       C0000063  -1.000000000000e+00
    RHS       C0000064   1.000000000000e+00
    RHS       C0000065  -1.000000000000e+00
    RHS       C0000066   1.000000000000e+00
    RHS       C0000067  -1.000000000000e+00
    RHS       C0000068   1.000000000000e+00
    RHS       C0000069  -1.000000000000e+00
    RHS       C0000070   1.000000000000e+00
    RHS       C0000071  -1.000000000000e+00
    RHS       C0000072   1.000000000000e+00
    RHS       C0000073  -1.000000000000e+00
    RHS       C0000074   1.000000000000e+00
    RHS       C0000075  -1.000000000000e+00
    RHS       C0000076   1.000000000000e+00
    RHS       C0000077  -1.000000000000e+00
    RHS       C0000078   1.000000000000e+00
    RHS       C0000079  -1.000000000000e+00
    RHS       C0000080   1.000000000000e+00
    RHS       C0000081  -1.000000000000e+00
    RHS       C0000082   1.000000000000e+00
    RHS       C0000083  -1.000000000000e+00
    RHS       C0000084   1.000000000000e+00
    RHS       C0000085  -1.000000000000e+00
    RHS       C0000086   1.000000000000e+00
    RHS       C0000087  -1.000000000000e+00
    RHS       C0000088   1.000000000000e+00
    RHS       C0000089  -1.000000000000e+00
    RHS       C0000090   1.000000000000e+00
    RHS       C0000091  -1.000000000000e+00
    RHS       C0000092   1.000000000000e+00
    RHS       C0000093  -1.000000000000e+00
    RHS       C0000094   1.000000000000e+00
    RHS       C0000095  -1.000000000000e+00
    RHS       C0000096   1.000000000000e+00
    RHS       C0000097   1.000000000000e+00
    RHS       C0000098  -1.000000000000e+00
    RHS       C0000099   1.000000000000e+00
    RHS       C0000100  -1.000000000000e+00
    RHS       C0000101   1.000000000000e+00
    RHS       C0000102  -1.000000000000e+00
    RHS       C0000103   1.000000000000e-09
    RHS       C0000104   3.000572667139e+00
    RHS       C0000105   1.199999998855e+01
    RHS       C0000106   1.199999999055e+01
    RHS       C0000107   1.999999999580e+01
    RHS       C0000108   1.999999999780e+01
    RHS       C0000109   4.091327398701e+00
    RHS       C0000110   4.091327400701e+00
    RHS       C0000111   9.999999989983e-01
    RHS       C0000112   1.000000000998e+00
    RHS       C0000113   1.899999999867e+01
    RHS       C0000114   1.900000000067e+01
    RHS       C0000115   3.999999998872e+00
    RHS       C0000116   4.000000000872e+00
    RHS       C0000117   2.999999998576e+00
    RHS       C0000118   3.000000000576e+00
    RHS       C0000119   1.999999997627e+01
    RHS       C0000120   1.999999997827e+01
    RHS       C0000121   9.999999989862e-01
    RHS       C0000122   1.000000000986e+00
    RHS       C0000123   9.999999989865e-01
    RHS       C0000124   1.000000000987e+00
    RHS       C0000125   1.799999999871e+01
    RHS       C0000126   1.800000000071e+01
    RHS       C0000127   9.999999989827e-01
    RHS       C0000128   1.000000000983e+00
    RHS       C0000129   1.999999998975e+00
    RHS       C0000130   2.000000000975e+00
    RHS       C0000131   7.999999998891e+00
    RHS       C0000132   8.000000000891e+00
    RHS       C0000133   2.999999998796e+00
    RHS       C0000134   3.000000000796e+00
    RHS       C0000135   7.999999997600e+00
    RHS       C0000136   7.999999999600e+00
    RHS       C0000137   7.999999993673e+00
    RHS       C0000138   7.999999995673e+00
    RHS       C0000139   3.999999998840e+00
    RHS       C0000140   4.000000000840e+00
BOUNDS
 LO BND       X0000048   1.500000000000e+00
 UP BND       X0000048   6.000000000000e+00
 LO BND       X0000049   5.000000000000e+00
 UP BND       X0000049   2.000000000000e+01
 LO BND       X0000050   6.000000000000e+00
 UP BND       X0000050   2.400000000000e+01
 LO BND       X0000051   1.000000000000e+01
 UP BND       X0000051   4.000000000000e+01
 LO BND       X0000052   1.500000000000e+00
 UP BND       X0000052   6.000000000000e+00
 LO BND       X0000053   2.000000000000e+00
 UP BND       X0000053   8.000000000000e+00
 LO BND       X0000054   7.500000000000e+00
 UP BND       X0000054   3.000000000000e+01
 LO BND       X0000055   1.000000000000e+00
 UP BND       X0000055   4.000000000000e+00
 LO BND       X0000056   1.000000000000e+00
 UP BND       X0000056   4.000000000000e+00
 LO BND       X0000057   1.000000000000e+01
 UP BND       X0000057   4.000000000000e+01
 LO BND       X0000058   5.000000000000e-01
 UP BND       X0000058   2.000000000000e+00
 LO BND       X0000059   2.500000000000e+00
 UP BND       X0000059   1.000000000000e+01
 LO BND       X0000060   9.000000000000e+00
 UP BND       X0000060   3.600000000000e+01
 LO BND       X0000061   1.100000000000e+01
 UP BND       X0000061   4.400000000000e+01
 LO BND       X0000062   2.000000000000e+00
 UP BND       X0000062   8.000000000000e+00
 LO BND       X0000063   5.000000000000e-01
 UP BND       X0000063   2.000000000000e+00
 LO BND       X0000064   2.000000000000e+00
 UP BND       X0000064   8.000000000000e+00
 LO BND       X0000065   6.000000000000e+00
 UP BND       X0000065   2.400000000000e+01
 LO BND       X0000066   4.000000000000e+00
 UP BND       X0000066   1.600000000000e+01
 LO BND       X0000067   9.000000000000e+00
 UP BND       X0000067   3.600000000000e+01
 LO BND       X0000068   5.000000000000e-01
 UP BND       X0000068   2.000000000000e+00
 LO BND       X0000069   1.000000000000e+00
 UP BND       X0000069   4.000000000000e+00
 LO BND       X0000070   4.000000000000e+00
 UP BND       X0000070   1.600000000000e+01
 LO BND       X0000071   1.500000000000e+00
 UP BND       X0000071   6.000000000000e+00
 LO BND       X0000072   1.500000000000e+00
 UP BND       X0000072   6.000000000000e+00
 LO BND       X0000073   2.000000000000e+00
 UP BND       X0000073   8.000000000000e+00
 LO BND       X0000074   1.000000000000e+00
 UP BND       X0000074   4.000000000000e+00
 LO BND       X0000075   2.500000000000e+00
 UP BND       X0000075   1.000000000000e+01
 LO BND       X0000076   6.000000000000e+00
 UP BND       X0000076   2.400000000000e+01
 LO BND       X0000077   5.000000000000e-01
 UP BND       X0000077   2.000000000000e+00
 LO BND       X0000078   8.000000000000e+00
 UP BND       X0000078   3.200000000000e+01
 LO BND       X0000079   2.500000000000e+00
 UP BND       X0000079   1.000000000000e+01
 LO BND       X0000080   2.000000000000e+00
 UP BND       X0000080   8.000000000000e+00
 LO BND       X0000081   8.000000000000e+00
 UP BND       X0000081   3.200000000000e+01
 LO BND       X0000082   5.000000000000e+00
 UP BND       X0000082   2.000000000000e+01
 LO BND       X0000083   5.000000000000e-01
 UP BND       X0000083   2.000000000000e+00
 LO BND       X0000084   5.000000000000e-01
 UP BND       X0000084   2.000000000000e+00
 LO BND       X0000085   5.000000000000e-01
 UP BND       X0000085   2.000000000000e+00
 LO BND       X0000086   9.500000000000e+00
 UP BND       X0000086   3.800000000000e+01
 LO BND       X0000087   1.100000000000e+01
 UP BND       X0000087   4.400000000000e+01
 LO BND       X0000088   2.000000000000e+00
 UP BND       X0000088   8.000000000000e+00
 LO BND       X0000089   9.500000000000e+00
 UP BND       X0000089   3.800000000000e+01
 LO BND       X0000090   5.000000000000e-01
 UP BND       X0000090   2.000000000000e+00
 LO BND       X0000091   5.000000000000e-01
 UP BND       X0000091   2.000000000000e+00
 LO BND       X0000092   6.500000000000e+00
 UP BND       X0000092   2.600000000000e+01
 LO BND       X0000093   5.000000000000e-01
 UP BND       X0000093   2.000000000000e+00
 LO BND       X0000094   2.000000000000e+00
 UP BND       X0000094   8.000000000000e+00
 LO BND       X0000095   1.000000000000e+00
 UP BND       X0000095   4.000000000000e+00
ENDATA
