\* U11R08_energy_weights *\
Minimize
OBJ: w_006
Subject To
_C1: d_000 - 0.166666666667 w_000 >= -1
_C10: d_004 + 0.25 w_004 >= 1
_C100: - 0.00209563146497 w_000 - 0.000543678928467 w_001
 - 0.0017779797696 w_002 - 0.0117551353438 w_003 - 0.0112572686465 w_004
 - 0.0128335936945 w_005 - 0.0132699728939 w_006 - 0.00247881588833 w_007
 - 0.00684948477421 w_008 - 0.00845068798746 w_009 - 0.0010613672534 w_010
 - 0.00447837313789 w_011 - 0.023738219405 w_012 - 0.00430341693509 w_013
 - 0.0103231238804 w_014 - 0.00118322981084 w_015 - 0.000160899028123 w_016
 - 0.00424567127509 w_017 - 0.000329281731973 w_018 - 0.00370087990834 w_019
 - 0.0108391941133 w_020 - 0.011927057624 w_021 - 0.00908963208531 w_022
 - 0.00313131150709 w_023 - 0.000713983116625 w_024 - 0.0157173371181 w_025
 - 0.00206579789282 w_026 - 0.0148113067014 w_027 - 0.00249337871677 w_028
 - 0.00711950388489 w_029 - 0.0107274446312 w_030 - 0.000111547220629 w_031
 - 0.0191490069617 w_032 - 0.000892074372769 w_033 - 0.00500324174629 w_034
 - 0.00783621753185 w_035 - 0.00476689917638 w_036 - 0.0149962748487 w_037
 - 0.000899962571508 w_038 - 0.00918600969298 w_039 - 0.000203677336669 w_040
 - 9.25346390527e-05 w_041 - 0.00205790969408 w_042 - 0.00801865741037 w_043
 - 0.0004440651367 w_044 - 0.0043615671181 w_045 - 0.00765772175269 w_046
 - 0.00535092927532 w_047 - worst_relative_error <= -1
_C101: 0.00272557152027 w_000 + 0.00176151681232 w_001
 + 0.00464030020244 w_002 + 0.000324198884116 w_003 + 0.000484273934726 w_004
 + 0.00280417715894 w_005 + 0.00208433318521 w_006 + 0.00112941292648 w_007
 + 0.00234345529057 w_008 + 0.00130425122204 w_009 + 0.00330054806695 w_010
 + 0.000460376240557 w_011 + 0.000414506492865 w_012 + 0.00203604404286 w_013
 + 0.00493961388436 w_014 + 0.00479563521454 w_015 + 0.000749469214437 w_016
 + 0.000977879820274 w_017 + 0.00310309583765 w_018 + 0.00337920308103 w_019
 + 0.000706018861403 w_020 + 0.00116585197255 w_021 + 0.003916061818 w_022
 + 0.00171115390313 w_023 + 0.002613538735 w_024 + 0.00127931664445 w_025
 + 0.00521088233842 w_026 + 0.00408561694564 w_027 + 0.00342813410359 w_028
 + 0.0018404187034 w_029 + 0.00107509998519 w_030 + 0.00215666814793 w_031
 + 0.00188085715696 w_032 + 0.00404379598084 w_033 + 0.00300207376685 w_034
 + 0.00103006961932 w_035 + 0.00500760381178 w_036 + 0.00314062114255 w_037
 + 0.000955364637338 w_038 + 0.0044622031304 w_039 + 0.00238873253345 w_040
 + 0.00241475336987 w_041 + 0.000672443588604 w_042 + 0.000311904409223 w_043
 + 0.00327808225942 w_044 + 0.00249064336148 w_045 + 0.00212304349973 w_046
 + 0.0038741421024 w_047 - worst_relative_error <= 1
_C102: - 0.00272557152027 w_000 - 0.00176151681232 w_001
 - 0.00464030020244 w_002 - 0.000324198884116 w_003 - 0.000484273934726 w_004
 - 0.00280417715894 w_005 - 0.00208433318521 w_006 - 0.00112941292648 w_007
 - 0.00234345529057 w_008 - 0.00130425122204 w_009 - 0.00330054806695 w_010
 - 0.000460376240557 w_011 - 0.000414506492865 w_012 - 0.00203604404286 w_013
 - 0.00493961388436 w_014 - 0.00479563521454 w_015 - 0.000749469214437 w_016
 - 0.000977879820274 w_017 - 0.00310309583765 w_018 - 0.00337920308103 w_019
 - 0.000706018861403 w_020 - 0.00116585197255 w_021 - 0.003916061818 w_022
 - 0.00171115390313 w_023 - 0.002613538735 w_024 - 0.00127931664445 w_025
 - 0.00521088233842 w_026 - 0.00408561694564 w_027 - 0.00342813410359 w_028
 - 0.0018404187034 w_029 - 0.00107509998519 w_030 - 0.00215666814793 w_031
 - 0.00188085715696 w_032 - 0.00404379598084 w_033 - 0.00300207376685 w_034
 - 0.00103006961932 w_035 - 0.00500760381178 w_036 - 0.00314062114255 w_037
 - 0.000955364637338 w_038 - 0.0044622031304 w_039 - 0.00238873253345 w_040
 - 0.00241475336987 w_041 - 0.000672443588604 w_042 - 0.000311904409223 w_043
 - 0.00327808225942 w_044 - 0.00249064336148 w_045 - 0.00212304349973 w_046
 - 0.0038741421024 w_047 - worst_relative_error <= -1
_C103: w_016 >= 17.9995791778
_C104: w_016 <= 17.9995811778
_C105: w_012 >= 0.999998998441
_C106: w_012 <= 1.00000099844
_C107: w_042 >= 7.9999989756
_C108: w_042 <= 8.0000009756
_C109: w_009 >= 2.99999899517
_C11: d_005 - 0.333333333333 w_005 >= -1
_C110: w_009 <= 3.00000099517
_C111: w_020 >= 1.99999899655
_C112: w_020 <= 2.00000099655
_C113: w_019 >= 8.9999989866
_C114: w_019 <= 9.0000009866
_C115: w_033 >= 22.999998915
_C116: w_033 <= 23.000000915
_C117: w_022 >= 1.99999899663
_C118: w_022 <= 2.00000099663
_C119: w_021 >= 0.999998998116
_C12: d_005 + 0.333333333333 w_005 >= 1
_C120: w_021 <= 1.00000099812
_C121: w_031 >= 12.9999989603
_C122: w_031 <= 13.0000009603
_C123: w_037 >= 0.999998998228
_C124: w_037 <= 1.00000099823
_C125: w_025 >= 0.999998998249
_C126: w_025 <= 1.00000099825
_C127: w_035 >= 3.99999899357
_C128: w_035 <= 4.00000099357
_C129: w_036 >= 5.99999899081
_C13: d_006 - w_006 >= -1
_C130: w_036 <= 6.00000099081
_C131: w_014 >= 6.34439980276
_C132: w_014 <= 6.34440180276
_C133: w_032 >= 0.99999899836
_C134: w_032 <= 1.00000099836
_C135: w_046 >= 0.999998997891
_C136: w_046 <= 1.00000099789
_C137: w_047 >= 4.9999989924
_C138: w_047 <= 5.0000009924
_C139: w_030 >= 2.9999989958
_C14: d_006 + w_006 >= 1
_C140: w_030 <= 3.0000009958
_C141: w_002 >= 6.99999898655
_C142: w_002 <= 7.00000098655
_C143: w_008 >= 1.99999899635
_C144: w_008 <= 2.00000099635
_C145: w_013 >= 7.99999898748
_C146: w_013 <= 8.00000098748
_C147: w_007 >= 2.99999899343
_C148: w_007 <= 3.00000099343
_C149: w_041 >= 8.99999896884
_C15: d_007 - 0.333333333333 w_007 >= -1
_C150: w_041 <= 9.00000096884
_C151: w_034 >= 3.99999899347
_C152: w_034 <= 4.00000099347
_C153: w_018 >= 15.9999989433
_C154: w_018 <= 16.0000009433
_C155: w_027 >= 0.99999899821
_C156: w_027 <= 1.00000099821
_C157: w_039 >= 3.99999899465
_C158: w_039 <= 4.00000099465
_C159: w_015 >= 30.1039352191
_C16: d_007 + 0.333333333333 w_007 >= 1
_C160: w_015 <= 30.1039372191
_C161: w_026 >= 9.99999898137
_C162: w_026 <= 10.0000009814
_C163: w_017 >= 4.99999899122
_C164: w_017 <= 5.00000099122
_C165: w_023 >= 5.99999898666
_C166: w_023 <= 6.00000098666
_C167: w_038 >= 19.9999989374
_C168: w_038 <= 20.0000009374
_C169: w_024 >= 22.9999989106
_C17: d_008 - 0.5 w_008 >= -1
_C170: w_024 <= 23.0000009106
_C171: w_044 >= 18.9999989359
_C172: w_044 <= 19.0000009359
_C173: w_010 >= 14.9999989487
_C174: w_010 <= 15.0000009487
_C175: w_028 >= 13.9999989781
_C176: w_028 <= 14.0000009781
_C177: w_043 >= 1.99999899637
_C178: w_043 <= 2.00000099637
_C179: w_029 >= 3.99999899343
_C18: d_008 + 0.5 w_008 >= 1
_C180: w_029 <= 4.00000099343
_C181: w_005 >= 2.99999899628
_C182: w_005 <= 3.00000099628
_C183: w_000 >= 5.99999898716
_C184: w_000 <= 6.00000098716
_C19: d_009 - 0.333333333333 w_009 >= -1
_C2: d_000 + 0.166666666667 w_000 >= 1
_C20: d_009 + 0.333333333333 w_009 >= 1
_C21: d_010 - 0.0666666666667 w_010 >= -1
_C22: d_010 + 0.0666666666667 w_010 >= 1
_C23: d_011 - 0.25 w_011 >= -1
_C24: d_011 + 0.25 w_011 >= 1
_C25: d_012 - w_012 >= -1
_C26: d_012 + w_012 >= 1
_C27: d_013 - 0.125 w_013 >= -1
_C28: d_013 + 0.125 w_013 >= 1
_C29: d_014 - 0.25 w_014 >= -1
_C3: d_001 - 0.0526315789474 w_001 >= -1
_C30: d_014 + 0.25 w_014 >= 1
_C31: d_015 - 0.0416666666667 w_015 >= -1
_C32: d_015 + 0.0416666666667 w_015 >= 1
_C33: d_016 - 0.0555555555556 w_016 >= -1
_C34: d_016 + 0.0555555555556 w_016 >= 1
_C35: d_017 - 0.2 w_017 >= -1
_C36: d_017 + 0.2 w_017 >= 1
_C37: d_018 - 0.0625 w_018 >= -1
_C38: d_018 + 0.0625 w_018 >= 1
_C39: d_019 - 0.111111111111 w_019 >= -1
_C4: d_001 + 0.0526315789474 w_001 >= 1
_C40: d_019 + 0.111111111111 w_019 >= 1
_C41: d_020 - 0.5 w_020 >= -1
_C42: d_020 + 0.5 w_020 >= 1
_C43: d_021 - w_021 >= -1
_C44: d_021 + w_021 >= 1
_C45: d_022 - 0.5 w_022 >= -1
_C46: d_022 + 0.5 w_022 >= 1
_C47: d_023 - 0.166666666667 w_023 >= -1
_C48: d_023 + 0.166666666667 w_023 >= 1
_C49: d_024 - 0.0434782608696 w_024 >= -1
_C5: d_002 - 0.142857142857 w_002 >= -1
_C50: d_024 + 0.0434782608696 w_024 >= 1
_C51: d_025 - w_025 >= -1
_C52: d_025 + w_025 >= 1
_C53: d_026 - 0.1 w_026 >= -1
_C54: d_026 + 0.1 w_026 >= 1
_C55: d_027 - w_027 >= -1
_C56: d_027 + w_027 >= 1
_C57: d_028 - 0.0714285714286 w_028 >= -1
_C58: d_028 + 0.0714285714286 w_028 >= 1
_C59: d_029 - 0.25 w_029 >= -1
_C6: d_002 + 0.142857142857 w_002 >= 1
_C60: d_029 + 0.25 w_029 >= 1
_C61: d_030 - 0.333333333333 w_030 >= -1
_C62: d_030 + 0.333333333333 w_030 >= 1
_C63: d_031 - 0.0769230769231 w_031 >= -1
_C64: d_031 + 0.0769230769231 w_031 >= 1
_C65: d_032 - w_032 >= -1
_C66: d_032 + w_032 >= 1
_C67: d_033 - 0.0434782608696 w_033 >= -1
_C68: d_033 + 0.0434782608696 w_033 >= 1
_C69: d_034 - 0.25 w_034 >= -1
_C7: d_003 - 0.25 w_003 >= -1
_C70: d_034 + 0.25 w_034 >= 1
_C71: d_035 - 0.25 w_035 >= -1
_C72: d_035 + 0.25 w_035 >= 1
_C73: d_036 - 0.166666666667 w_036 >= -1
_C74: d_036 + 0.166666666667 w_036 >= 1
_C75: d_037 - w_037 >= -1
_C76: d_037 + w_037 >= 1
_C77: d_038 - 0.05 w_038 >= -1
_C78: d_038 + 0.05 w_038 >= 1
_C79: d_039 - 0.25 w_039 >= -1
_C8: d_003 + 0.25 w_003 >= 1
_C80: d_039 + 0.25 w_039 >= 1
_C81: d_040 - 0.0526315789474 w_040 >= -1
_C82: d_040 + 0.0526315789474 w_040 >= 1
_C83: d_041 - 0.111111111111 w_041 >= -1
_C84: d_041 + 0.111111111111 w_041 >= 1
_C85: d_042 - 0.125 w_042 >= -1
_C86: d_042 + 0.125 w_042 >= 1
_C87: d_043 - 0.5 w_043 >= -1
_C88: d_043 + 0.5 w_043 >= 1
_C89: d_044 - 0.0526315789474 w_044 >= -1
_C9: d_004 - 0.25 w_004 >= -1
_C90: d_044 + 0.0526315789474 w_044 >= 1
_C91: d_045 - 0.333333333333 w_045 >= -1
_C92: d_045 + 0.333333333333 w_045 >= 1
_C93: d_046 - w_046 >= -1
_C94: d_046 + w_046 >= 1
_C95: d_047 - 0.2 w_047 >= -1
_C96: d_047 + 0.2 w_047 >= 1
_C97: 0.00274010138375 w_000 + 0.00274010138375 w_001 + 0.00274010138375 w_002
 + 0.00287710645294 w_003 + 0.00287710645294 w_004 + 0.00287710645294 w_005
 + 0.00287710645294 w_006 + 0.00287710645294 w_007 + 0.00287710645294 w_008
 + 0.00274010138375 w_009 + 0.00260309631456 w_010 + 0.00260309631456 w_011
 + 0.00274010138375 w_012 + 0.00274010138375 w_013 + 0.00274010138375 w_014
 + 0.00287710645294 w_015 + 0.00274010138375 w_016 + 0.00287710645294 w_017
 + 0.00274010138375 w_018 + 0.00274010138375 w_019 + 0.00260309631456 w_020
 + 0.00287710645294 w_021 + 0.00274010138375 w_022 + 0.00260309631456 w_023
 + 0.00274010138375 w_024 + 0.00287710645294 w_025 + 0.00260309631456 w_026
 + 0.00260309631456 w_027 + 0.00274010138375 w_028 + 0.00260309631456 w_029
 + 0.00287710645294 w_030 + 0.00287710645294 w_031 + 0.00287710645294 w_032
 + 0.00260309631456 w_033 + 0.00287710645294 w_034 + 0.00260309631456 w_035
 + 0.00260309631456 w_036 + 0.00274010138375 w_037 + 0.00287710645294 w_038
 + 0.00260309631456 w_039 + 0.00260309631456 w_040 + 0.00274010138375 w_041
 + 0.00260309631456 w_042 + 0.00287710645294 w_043 + 0.00274010138375 w_044
 + 0.00274010138375 w_045 + 0.00260309631456 w_046 + 0.00274010138375 w_047
 - worst_relative_error <= 1
_C98: - 0.00274010138375 w_000 - 0.00274010138375 w_001
 - 0.00274010138375 w_002 - 0.00287710645294 w_003 - 0.00287710645294 w_004
 - 0.00287710645294 w_005 - 0.00287710645294 w_006 - 0.00287710645294 w_007
 - 0.00287710645294 w_008 - 0.00274010138375 w_009 - 0.00260309631456 w_010
 - 0.00260309631456 w_011 - 0.00274010138375 w_012 - 0.00274010138375 w_013
 - 0.00274010138375 w_014 - 0.00287710645294 w_015 - 0.00274010138375 w_016
 - 0.00287710645294 w_017 - 0.00274010138375 w_018 - 0.00274010138375 w_019
 - 0.00260309631456 w_020 - 0.00287710645294 w_021 - 0.00274010138375 w_022
 - 0.00260309631456 w_023 - 0.00274010138375 w_024 - 0.00287710645294 w_025
 - 0.00260309631456 w_026 - 0.00260309631456 w_027 - 0.00274010138375 w_028
 - 0.00260309631456 w_029 - 0.00287710645294 w_030 - 0.00287710645294 w_031
 - 0.00287710645294 w_032 - 0.00260309631456 w_033 - 0.00287710645294 w_034
 - 0.00260309631456 w_035 - 0.00260309631456 w_036 - 0.00274010138375 w_037
 - 0.00287710645294 w_038 - 0.00260309631456 w_039 - 0.00260309631456 w_040
 - 0.00274010138375 w_041 - 0.00260309631456 w_042 - 0.00287710645294 w_043
 - 0.00274010138375 w_044 - 0.00274010138375 w_045 - 0.00260309631456 w_046
 - 0.00274010138375 w_047 - worst_relative_error <= -1
_C99: 0.00209563146497 w_000 + 0.000543678928467 w_001 + 0.0017779797696 w_002
 + 0.0117551353438 w_003 + 0.0112572686465 w_004 + 0.0128335936945 w_005
 + 0.0132699728939 w_006 + 0.00247881588833 w_007 + 0.00684948477421 w_008
 + 0.00845068798746 w_009 + 0.0010613672534 w_010 + 0.00447837313789 w_011
 + 0.023738219405 w_012 + 0.00430341693509 w_013 + 0.0103231238804 w_014
 + 0.00118322981084 w_015 + 0.000160899028123 w_016 + 0.00424567127509 w_017
 + 0.000329281731973 w_018 + 0.00370087990834 w_019 + 0.0108391941133 w_020
 + 0.011927057624 w_021 + 0.00908963208531 w_022 + 0.00313131150709 w_023
 + 0.000713983116625 w_024 + 0.0157173371181 w_025 + 0.00206579789282 w_026
 + 0.0148113067014 w_027 + 0.00249337871677 w_028 + 0.00711950388489 w_029
 + 0.0107274446312 w_030 + 0.000111547220629 w_031 + 0.0191490069617 w_032
 + 0.000892074372769 w_033 + 0.00500324174629 w_034 + 0.00783621753185 w_035
 + 0.00476689917638 w_036 + 0.0149962748487 w_037 + 0.000899962571508 w_038
 + 0.00918600969298 w_039 + 0.000203677336669 w_040 + 9.25346390527e-05 w_041
 + 0.00205790969408 w_042 + 0.00801865741037 w_043 + 0.0004440651367 w_044
 + 0.0043615671181 w_045 + 0.00765772175269 w_046 + 0.00535092927532 w_047
 - worst_relative_error <= 1
primary_optimum_band: worst_relative_error <= 1e-06
secondary_optimum_band: d_000 + d_001 + d_002 + d_003 + d_004 + d_005 + d_006
 + d_007 + d_008 + d_009 + d_010 + d_011 + d_012 + d_013 + d_014 + d_015
 + d_016 + d_017 + d_018 + d_019 + d_020 + d_021 + d_022 + d_023 + d_024
 + d_025 + d_026 + d_027 + d_028 + d_029 + d_030 + d_031 + d_032 + d_033
 + d_034 + d_035 + d_036 + d_037 + d_038 + d_039 + d_040 + d_041 + d_042
 + d_043 + d_044 + d_045 + d_046 + d_047 <= 1.35178854871
total_days: w_000 + w_001 + w_002 + w_003 + w_004 + w_005 + w_006 + w_007
 + w_008 + w_009 + w_010 + w_011 + w_012 + w_013 + w_014 + w_015 + w_016
 + w_017 + w_018 + w_019 + w_020 + w_021 + w_022 + w_023 + w_024 + w_025
 + w_026 + w_027 + w_028 + w_029 + w_030 + w_031 + w_032 + w_033 + w_034
 + w_035 + w_036 + w_037 + w_038 + w_039 + w_040 + w_041 + w_042 + w_043
 + w_044 + w_045 + w_046 + w_047 = 365
Bounds
 3 <= w_000 <= 12
 9.5 <= w_001 <= 38
 3.5 <= w_002 <= 14
 2 <= w_003 <= 8
 2 <= w_004 <= 8
 1.5 <= w_005 <= 6
 0.5 <= w_006 <= 2
 1.5 <= w_007 <= 6
 1 <= w_008 <= 4
 1.5 <= w_009 <= 6
 7.5 <= w_010 <= 30
 2 <= w_011 <= 8
 0.5 <= w_012 <= 2
 4 <= w_013 <= 16
 2 <= w_014 <= 8
 12 <= w_015 <= 48
 9 <= w_016 <= 36
 2.5 <= w_017 <= 10
 8 <= w_018 <= 32
 4.5 <= w_019 <= 18
 1 <= w_020 <= 4
 0.5 <= w_021 <= 2
 1 <= w_022 <= 4
 3 <= w_023 <= 12
 11.5 <= w_024 <= 46
 0.5 <= w_025 <= 2
 5 <= w_026 <= 20
 0.5 <= w_027 <= 2
 7 <= w_028 <= 28
 2 <= w_029 <= 8
 1.5 <= w_030 <= 6
 6.5 <= w_031 <= 26
 0.5 <= w_032 <= 2
 11.5 <= w_033 <= 46
 2 <= w_034 <= 8
 2 <= w_035 <= 8
 3 <= w_036 <= 12
 0.5 <= w_037 <= 2
 10 <= w_038 <= 40
 2 <= w_039 <= 8
 9.5 <= w_040 <= 38
 4.5 <= w_041 <= 18
 4 <= w_042 <= 16
 1 <= w_043 <= 4
 9.5 <= w_044 <= 38
 1.5 <= w_045 <= 6
 0.5 <= w_046 <= 2
 2.5 <= w_047 <= 10
End
