*SENSE:Minimize
NAME          MODEL
ROWS
 N  OBJ
 E  C0000000
 G  C0000001
 G  C0000002
 G  C0000003
 G  C0000004
 G  C0000005
 G  C0000006
 G  C0000007
 G  C0000008
 G  C0000009
 G  C0000010
 G  C0000011
 G  C0000012
 G  C0000013
 G  C0000014
 G  C0000015
 G  C0000016
 G  C0000017
 G  C0000018
 G  C0000019
 G  C0000020
 G  C0000021
 G  C0000022
 G  C0000023
 G  C0000024
 G  C0000025
 G  C0000026
 G  C0000027
 G  C0000028
 G  C0000029
 G  C0000030
 G  C0000031
 G  C0000032
 G  C0000033
 G  C0000034
 G  C0000035
 G  C0000036
 G  C0000037
 G  C0000038
 G  C0000039
 G  C0000040
 G  C0000041
 G  C0000042
 G  C0000043
 G  C0000044
 G  C0000045
 G  C0000046
 G  C0000047
 G  C0000048
 L  C0000049
 L  C0000050
 L  C0000051
 L  C0000052
 L  C0000053
 L  C0000054
 L  C0000055
 L  C0000056
 G  C0000057
 L  C0000058
 G  C0000059
 L  C0000060
 G  C0000061
 L  C0000062
 G  C0000063
 L  C0000064
 G  C0000065
 L  C0000066
 G  C0000067
 L  C0000068
 G  C0000069
 L  C0000070
 G  C0000071
 L  C0000072
 G  C0000073
 L  C0000074
 G  C0000075
 L  C0000076
 G  C0000077
 L  C0000078
 G  C0000079
 L  C0000080
 G  C0000081
 L  C0000082
COLUMNS
    X0000000  C0000001   1.000000000000e+00
    X0000000  C0000002   1.000000000000e+00
    X0000000  C0000056   1.000000000000e+00
    X0000001  C0000003   1.000000000000e+00
    X0000001  C0000004   1.000000000000e+00
    X0000001  C0000056   1.000000000000e+00
    X0000002  C0000005   1.000000000000e+00
    X0000002  C0000006   1.000000000000e+00
    X0000002  C0000056   1.000000000000e+00
    X0000003  C0000007   1.000000000000e+00
    X0000003  C0000008   1.000000000000e+00
    X0000003  C0000056   1.000000000000e+00
    X0000004  C0000009   1.000000000000e+00
    X0000004  C0000010   1.000000000000e+00
    X0000004  C0000056   1.000000000000e+00
    X0000005  C0000011   1.000000000000e+00
    X0000005  C0000012   1.000000000000e+00
    X0000005  C0000056   1.000000000000e+00
    X0000006  C0000013   1.000000000000e+00
    X0000006  C0000014   1.000000000000e+00
    X0000006  C0000056   1.000000000000e+00
    X0000007  C0000015   1.000000000000e+00
    X0000007  C0000016   1.000000000000e+00
    X0000007  C0000056   1.000000000000e+00
    X0000008  C0000017   1.000000000000e+00
    X0000008  C0000018   1.000000000000e+00
    X0000008  C0000056   1.000000000000e+00
    X0000009  C0000019   1.000000000000e+00
    X0000009  C0000020   1.000000000000e+00
    X0000009  C0000056   1.000000000000e+00
    X0000010  C0000021   1.000000000000e+00
    X0000010  C0000022   1.000000000000e+00
    X0000010  C0000056   1.000000000000e+00
    X0000011  C0000023   1.000000000000e+00
    X0000011  C0000024   1.000000000000e+00
    X0000011  C0000056   1.000000000000e+00
    X0000012  C0000025   1.000000000000e+00
    X0000012  C0000026   1.000000000000e+00
    X0000012  C0000056   1.000000000000e+00
    X0000013  C0000027   1.000000000000e+00
    X0000013  C0000028   1.000000000000e+00
    X0000013  C0000056   1.000000000000e+00
    X0000014  C0000029   1.000000000000e+00
    X0000014  C0000030   1.000000000000e+00
    X0000014  C0000056   1.000000000000e+00
    X0000015  C0000031   1.000000000000e+00
    X0000015  C0000032   1.000000000000e+00
    X0000015  C0000056   1.000000000000e+00
    X0000016  C0000033   1.000000000000e+00
    X0000016  C0000034   1.000000000000e+00
    X0000016  C0000056   1.000000000000e+00
    X0000017  C0000035   1.000000000000e+00
    X0000017  C0000036   1.000000000000e+00
    X0000017  C0000056   1.000000000000e+00
    X0000018  C0000037   1.000000000000e+00
    X0000018  C0000038   1.000000000000e+00
    X0000018  C0000056   1.000000000000e+00
    X0000019  C0000039   1.000000000000e+00
    X0000019  C0000040   1.000000000000e+00
    X0000019  C0000056   1.000000000000e+00
    X0000020  C0000041   1.000000000000e+00
    X0000020  C0000042   1.000000000000e+00
    X0000020  C0000056   1.000000000000e+00
    X0000021  C0000043   1.000000000000e+00
    X0000021  C0000044   1.000000000000e+00
    X0000021  C0000056   1.000000000000e+00
    X0000022  C0000045   1.000000000000e+00
    X0000022  C0000046   1.000000000000e+00
    X0000022  C0000056   1.000000000000e+00
    X0000023  C0000047   1.000000000000e+00
    X0000023  C0000048   1.000000000000e+00
    X0000023  C0000056   1.000000000000e+00
    X0000024  C0000000   1.000000000000e+00
    X0000024  C0000001  -8.333333333333e-02
    X0000024  C0000002   8.333333333333e-02
    X0000024  C0000049   2.740101383751e-03
    X0000024  C0000050  -2.740101383751e-03
    X0000024  C0000051   3.857632575591e-03
    X0000024  C0000052  -3.857632575591e-03
    X0000024  C0000053   8.850046906631e-04
    X0000024  C0000054  -8.850046906631e-04
    X0000025  C0000000   1.000000000000e+00
    X0000025  C0000003  -1.000000000000e-01
    X0000025  C0000004   1.000000000000e-01
    X0000025  C0000049   2.603096314564e-03
    X0000025  C0000050  -2.603096314564e-03
    X0000025  C0000051   3.694609801653e-03
    X0000025  C0000052  -3.694609801653e-03
    X0000025  C0000053   4.561497062164e-03
    X0000025  C0000054  -4.561497062164e-03
    X0000025  C0000071   1.000000000000e+00
    X0000025  C0000072   1.000000000000e+00
    X0000026  C0000000   1.000000000000e+00
    X0000026  C0000005  -2.500000000000e-02
    X0000026  C0000006   2.500000000000e-02
    X0000026  C0000049   2.740101383751e-03
    X0000026  C0000050  -2.740101383751e-03
    X0000026  C0000051   3.017741671402e-04
    X0000026  C0000052  -3.017741671402e-04
    X0000026  C0000053   2.946378314324e-03
    X0000026  C0000054  -2.946378314324e-03
    X0000026  C0000063   1.000000000000e+00
    X0000026  C0000064   1.000000000000e+00
    X0000027  C0000000   1.000000000000e+00
    X0000027  C0000007  -1.000000000000e+00
    X0000027  C0000008   1.000000000000e+00
    X0000027  C0000049   2.877106452939e-03
    X0000027  C0000050  -2.877106452939e-03
    X0000027  C0000051   1.326997289392e-02
    X0000027  C0000052  -1.326997289392e-02
    X0000027  C0000053   2.084333185207e-03
    X0000027  C0000054  -2.084333185207e-03
    X0000028  C0000000   1.000000000000e+00
    X0000028  C0000009  -2.222222222222e-02
    X0000028  C0000010   2.222222222222e-02
    X0000028  C0000049   2.740101383751e-03
    X0000028  C0000050  -2.740101383751e-03
    X0000028  C0000051   4.494250666123e-04
    X0000028  C0000052  -4.494250666123e-04
    X0000028  C0000053   4.605836172419e-03
    X0000028  C0000054  -4.605836172419e-03
    X0000029  C0000000   1.000000000000e+00
    X0000029  C0000011  -9.090909090909e-02
    X0000029  C0000012   9.090909090909e-02
    X0000029  C0000049   2.603096314564e-03
    X0000029  C0000050  -2.603096314564e-03
    X0000029  C0000051   2.982042515571e-03
    X0000029  C0000052  -2.982042515571e-03
    X0000029  C0000053   5.937885745322e-04
    X0000029  C0000054  -5.937885745322e-04
    X0000030  C0000000   1.000000000000e+00
    X0000030  C0000013  -2.000000000000e-01
    X0000030  C0000014   2.000000000000e-01
    X0000030  C0000049   2.877106452939e-03
    X0000030  C0000050  -2.877106452939e-03
    X0000030  C0000051   5.003241746289e-03
    X0000030  C0000052  -5.003241746289e-03
    X0000030  C0000053   3.002073766849e-03
    X0000030  C0000054  -3.002073766849e-03
    X0000030  C0000081   1.000000000000e+00
    X0000030  C0000082   1.000000000000e+00
    X0000031  C0000000   1.000000000000e+00
    X0000031  C0000015  -3.030303030303e-02
    X0000031  C0000016   3.030303030303e-02
    X0000031  C0000049   2.740101383751e-03
    X0000031  C0000050  -2.740101383751e-03
    X0000031  C0000051   7.727400841549e-04
    X0000031  C0000052  -7.727400841549e-04
    X0000031  C0000053   3.573445909248e-03
    X0000031  C0000054  -3.573445909248e-03
    X0000032  C0000000   1.000000000000e+00
    X0000032  C0000017  -4.000000000000e-02
    X0000032  C0000018   4.000000000000e-02
    X0000032  C0000049   2.877106452939e-03
    X0000032  C0000050  -2.877106452939e-03
    X0000032  C0000051   1.115472206286e-04
    X0000032  C0000052  -1.115472206286e-04
    X0000032  C0000053   2.156668147929e-03
    X0000032  C0000054  -2.156668147929e-03
    X0000032  C0000065   1.000000000000e+00
    X0000032  C0000066   1.000000000000e+00
    X0000033  C0000000   1.000000000000e+00
    X0000033  C0000019  -1.666666666667e-01
    X0000033  C0000020   1.666666666667e-01
    X0000033  C0000049   2.740101383751e-03
    X0000033  C0000050  -2.740101383751e-03
    X0000033  C0000051   1.047330304872e-02
    X0000033  C0000052  -1.047330304872e-02
    X0000033  C0000053   4.213844862490e-03
    X0000033  C0000054  -4.213844862490e-03
    X0000033  C0000079   1.000000000000e+00
    X0000033  C0000080   1.000000000000e+00
    X0000034  C0000000   1.000000000000e+00
    X0000034  C0000021  -2.000000000000e-01
    X0000034  C0000022   2.000000000000e-01
    X0000034  C0000049   2.603096314564e-03
    X0000034  C0000050  -2.603096314564e-03
    X0000034  C0000051   1.315013295154e-02
    X0000034  C0000052  -1.315013295154e-02
    X0000034  C0000053   1.088530094307e-03
    X0000034  C0000054  -1.088530094307e-03
    X0000034  C0000057   1.000000000000e+00
    X0000034  C0000058   1.000000000000e+00
    X0000035  C0000000   1.000000000000e+00
    X0000035  C0000023  -1.666666666667e-01
    X0000035  C0000024   1.666666666667e-01
    X0000035  C0000049   2.877106452939e-03
    X0000035  C0000050  -2.877106452939e-03
    X0000035  C0000051   1.072744463117e-02
    X0000035  C0000052  -1.072744463117e-02
    X0000035  C0000053   1.075099985187e-03
    X0000035  C0000054  -1.075099985187e-03
    X0000035  C0000075   1.000000000000e+00
    X0000035  C0000076   1.000000000000e+00
    X0000036  C0000000   1.000000000000e+00
    X0000036  C0000025  -8.333333333333e-02
    X0000036  C0000026   8.333333333333e-02
    X0000036  C0000049   2.603096314564e-03
    X0000036  C0000050  -2.603096314564e-03
    X0000036  C0000051   4.508611233058e-03
    X0000036  C0000052  -4.508611233058e-03
    X0000036  C0000053   4.501851577544e-03
    X0000036  C0000054  -4.501851577544e-03
    X0000036  C0000067   1.000000000000e+00
    X0000036  C0000068   1.000000000000e+00
    X0000037  C0000000   1.000000000000e+00
    X0000037  C0000027  -3.448275862069e-02
    X0000037  C0000028   3.448275862069e-02
    X0000037  C0000049   2.603096314564e-03
    X0000037  C0000050  -2.603096314564e-03
    X0000037  C0000053   1.801165259468e-03
    X0000037  C0000054  -1.801165259468e-03
    X0000038  C0000000   1.000000000000e+00
    X0000038  C0000029  -3.333333333333e-01
    X0000038  C0000030   3.333333333333e-01
    X0000038  C0000049   2.603096314564e-03
    X0000038  C0000050  -2.603096314564e-03
    X0000038  C0000051   1.481130670136e-02
    X0000038  C0000052  -1.481130670136e-02
    X0000038  C0000053   4.085616945638e-03
    X0000038  C0000054  -4.085616945638e-03
    X0000038  OBJ        1.000000000000e+00
    X0000039  C0000000   1.000000000000e+00
    X0000039  C0000031  -2.000000000000e-01
    X0000039  C0000032   2.000000000000e-01
    X0000039  C0000049   2.740101383751e-03
    X0000039  C0000050  -2.740101383751e-03
    X0000039  C0000051   1.019559800081e-02
    X0000039  C0000052  -1.019559800081e-02
    X0000039  C0000053   4.120377228065e-04
    X0000039  C0000054  -4.120377228065e-04
    X0000039  C0000059   1.000000000000e+00
    X0000039  C0000060   1.000000000000e+00
    X0000040  C0000000   1.000000000000e+00
    X0000040  C0000033  -2.000000000000e-01
    X0000040  C0000034   2.000000000000e-01
    X0000040  C0000049   2.603096314564e-03
    X0000040  C0000050  -2.603096314564e-03
    X0000040  C0000051   7.836217531845e-03
    X0000040  C0000052  -7.836217531845e-03
    X0000040  C0000053   1.030069619316e-03
    X0000040  C0000054  -1.030069619316e-03
    X0000040  C0000069   1.000000000000e+00
    X0000040  C0000070   1.000000000000e+00
    X0000041  C0000000   1.000000000000e+00
    X0000041  C0000035  -2.439024390244e-02
    X0000041  C0000036   2.439024390244e-02
    X0000041  C0000049   2.740101383751e-03
    X0000041  C0000050  -2.740101383751e-03
    X0000041  C0000051   1.161891221942e-03
    X0000041  C0000052  -1.161891221942e-03
    X0000041  C0000053   1.021033920901e-03
    X0000041  C0000054  -1.021033920901e-03
    X0000042  C0000000   1.000000000000e+00
    X0000042  C0000037  -3.448275862069e-02
    X0000042  C0000038   3.448275862069e-02
    X0000042  C0000049   2.603096314564e-03
    X0000042  C0000050  -2.603096314564e-03
    X0000042  C0000051   8.920743727694e-04
    X0000042  C0000052  -8.920743727694e-04
    X0000042  C0000053   4.043795980842e-03
    X0000042  C0000054  -4.043795980842e-03
    X0000042  C0000061   1.000000000000e+00
    X0000042  C0000062   1.000000000000e+00
    X0000043  C0000000   1.000000000000e+00
    X0000043  C0000039  -1.250000000000e-01
    X0000043  C0000040   1.250000000000e-01
    X0000043  C0000049   2.603096314564e-03
    X0000043  C0000050  -2.603096314564e-03
    X0000043  C0000051   5.583125484353e-03
    X0000043  C0000052  -5.583125484353e-03
    X0000043  C0000053   2.532316200069e-03
    X0000043  C0000054  -2.532316200069e-03
    X0000044  C0000000   1.000000000000e+00
    X0000044  C0000041  -3.333333333333e-01
    X0000044  C0000042   3.333333333333e-01
    X0000044  C0000049   2.877106452939e-03
    X0000044  C0000050  -2.877106452939e-03
    X0000044  C0000051   1.914900696174e-02
    X0000044  C0000052  -1.914900696174e-02
    X0000044  C0000053   1.880857156964e-03
    X0000044  C0000054  -1.880857156964e-03
    X0000044  C0000073   1.000000000000e+00
    X0000044  C0000074   1.000000000000e+00
    X0000045  C0000000   1.000000000000e+00
    X0000045  C0000043  -1.000000000000e+00
    X0000045  C0000044   1.000000000000e+00
    X0000045  C0000049   2.740101383751e-03
    X0000045  C0000050  -2.740101383751e-03
    X0000045  C0000051   8.746394309413e-03
    X0000045  C0000052  -8.746394309413e-03
    X0000045  C0000053   3.703155088135e-04
    X0000045  C0000054  -3.703155088135e-04
    X0000046  C0000000   1.000000000000e+00
    X0000046  C0000045  -7.142857142857e-02
    X0000046  C0000046   7.142857142857e-02
    X0000046  C0000049   2.740101383751e-03
    X0000046  C0000050  -2.740101383751e-03
    X0000046  C0000051   4.303416935093e-03
    X0000046  C0000052  -4.303416935093e-03
    X0000046  C0000053   2.036044042858e-03
    X0000046  C0000054  -2.036044042858e-03
    X0000046  C0000077   1.000000000000e+00
    X0000046  C0000078   1.000000000000e+00
    X0000047  C0000000   1.000000000000e+00
    X0000047  C0000047  -6.250000000000e-02
    X0000047  C0000048   6.250000000000e-02
    X0000047  C0000049   2.740101383751e-03
    X0000047  C0000050  -2.740101383751e-03
    X0000047  C0000051   8.530379020870e-04
    X0000047  C0000052  -8.530379020870e-04
    X0000047  C0000053   3.109169011998e-03
    X0000047  C0000054  -3.109169011998e-03
    X0000048  C0000049  -1.000000000000e+00
    X0000048  C0000050  -1.000000000000e+00
    X0000048  C0000051  -1.000000000000e+00
    X0000048  C0000052  -1.000000000000e+00
    X0000048  C0000053  -1.000000000000e+00
    X0000048  C0000054  -1.000000000000e+00
    X0000048  C0000055   1.000000000000e+00
RHS
    RHS       C0000000   3.650000000000e+02
    RHS       C0000001  -1.000000000000e+00
    RHS       C0000002   1.000000000000e+00
    RHS       C0000003  -1.000000000000e+00
    RHS       C0000004   1.000000000000e+00
    RHS       C0000005  -1.000000000000e+00
    RHS       C0000006   1.000000000000e+00
    RHS       C0000007  -1.000000000000e+00
    RHS       C0000008   1.000000000000e+00
    RHS       C0000009  -1.000000000000e+00
    RHS       C0000010   1.000000000000e+00
    RHS       C0000011  -1.000000000000e+00
    RHS       C0000012   1.000000000000e+00
    RHS       C0000013  -1.000000000000e+00
    RHS       C0000014   1.000000000000e+00
    RHS       C0000015  -1.000000000000e+00
    RHS       C0000016   1.000000000000e+00
    RHS       C0000017  -1.000000000000e+00
    RHS       C0000018   1.000000000000e+00
    RHS       C0000019  -1.000000000000e+00
    RHS       C0000020   1.000000000000e+00
    RHS       C0000021  -1.000000000000e+00
    RHS       C0000022   1.000000000000e+00
    RHS       C0000023  -1.000000000000e+00
    RHS       C0000024   1.000000000000e+00
    RHS       C0000025  -1.000000000000e+00
    RHS       C0000026   1.000000000000e+00
    RHS       C0000027  -1.000000000000e+00
    RHS       C0000028   1.000000000000e+00
    RHS       C0000029  -1.000000000000e+00
    RHS       C0000030   1.000000000000e+00
    RHS       C0000031  -1.000000000000e+00
    RHS       C0000032   1.000000000000e+00
    RHS       C0000033  -1.000000000000e+00
    RHS       C0000034   1.000000000000e+00
    RHS       C0000035  -1.000000000000e+00
    RHS       C0000036   1.000000000000e+00
    RHS       C0000037  -1.000000000000e+00
    RHS       C0000038   1.000000000000e+00
    RHS       C0000039  -1.000000000000e+00
    RHS       C0000040   1.000000000000e+00
    RHS       C0000041  -1.000000000000e+00
    RHS       C0000042   1.000000000000e+00
    RHS       C0000043  -1.000000000000e+00
    RHS       C0000044   1.000000000000e+00
    RHS       C0000045  -1.000000000000e+00
    RHS       C0000046   1.000000000000e+00
    RHS       C0000047  -1.000000000000e+00
    RHS       C0000048   1.000000000000e+00
    RHS       C0000049   1.000000000000e+00
    RHS       C0000050  -1.000000000000e+00
    RHS       C0000051   1.000000000000e+00
    RHS       C0000052  -1.000000000000e+00
    RHS       C0000053   1.000000000000e+00
    RHS       C0000054  -1.000000000000e+00
    RHS       C0000055   1.000000000000e-09
    RHS       C0000056   5.860454419198e+00
    RHS       C0000057   4.999999995002e+00
    RHS       C0000058   4.999999997002e+00
    RHS       C0000059   4.999999995993e+00
    RHS       C0000060   4.999999997993e+00
    RHS       C0000061   1.450000000000e+01
    RHS       C0000062   1.450000000100e+01
    RHS       C0000063   3.979650255748e+01
    RHS       C0000064   3.979650255948e+01
    RHS       C0000065   4.999999999874e+01
    RHS       C0000066   5.000000000000e+01
    RHS       C0000067   1.199999999838e+01
    RHS       C0000068   1.200000000038e+01
    RHS       C0000069   4.999999998256e+00
    RHS       C0000070   5.000000000256e+00
    RHS       C0000071   9.999999996031e+00
    RHS       C0000072   9.999999998031e+00
    RHS       C0000073   5.999999993112e+00
    RHS       C0000074   5.999999995112e+00
    RHS       C0000075   1.199999999831e+01
    RHS       C0000076   1.200000000000e+01
    RHS       C0000077   1.399999999844e+01
    RHS       C0000078   1.400000000044e+01
    RHS       C0000079   1.024769500988e+01
    RHS       C0000080   1.024769501188e+01
    RHS       C0000081   7.499992700202e+00
    RHS       C0000082   7.499992702202e+00
BOUNDS
 LO BND       X0000024   6.000000000000e+00
 UP BND       X0000024   2.400000000000e+01
 LO BND       X0000025   5.000000000000e+00
 UP BND       X0000025   2.000000000000e+01
 LO BND       X0000026   2.000000000000e+01
 UP BND       X0000026   8.000000000000e+01
 LO BND       X0000027   5.000000000000e-01
 UP BND       X0000027   2.000000000000e+00
 LO BND       X0000028   2.250000000000e+01
 UP BND       X0000028   9.000000000000e+01
 LO BND       X0000029   5.500000000000e+00
 UP BND       X0000029   2.200000000000e+01
 LO BND       X0000030   2.500000000000e+00
 UP BND       X0000030   1.000000000000e+01
 LO BND       X0000031   1.650000000000e+01
 UP BND       X0000031   6.600000000000e+01
 LO BND       X0000032   1.250000000000e+01
 UP BND       X0000032   5.000000000000e+01
 LO BND       X0000033   3.000000000000e+00
 UP BND       X0000033   1.200000000000e+01
 LO BND       X0000034   2.500000000000e+00
 UP BND       X0000034   1.000000000000e+01
 LO BND       X0000035   3.000000000000e+00
 UP BND       X0000035   1.200000000000e+01
 LO BND       X0000036   6.000000000000e+00
 UP BND       X0000036   2.400000000000e+01
 LO BND       X0000037   1.450000000000e+01
 UP BND       X0000037   5.800000000000e+01
 LO BND       X0000038   1.500000000000e+00
 UP BND       X0000038   6.000000000000e+00
 LO BND       X0000039   2.500000000000e+00
 UP BND       X0000039   1.000000000000e+01
 LO BND       X0000040   2.500000000000e+00
 UP BND       X0000040   1.000000000000e+01
 LO BND       X0000041   2.050000000000e+01
 UP BND       X0000041   8.200000000000e+01
 LO BND       X0000042   1.450000000000e+01
 UP BND       X0000042   5.800000000000e+01
 LO BND       X0000043   4.000000000000e+00
 UP BND       X0000043   1.600000000000e+01
 LO BND       X0000044   1.500000000000e+00
 UP BND       X0000044   6.000000000000e+00
 LO BND       X0000045   5.000000000000e-01
 UP BND       X0000045   2.000000000000e+00
 LO BND       X0000046   7.000000000000e+00
 UP BND       X0000046   2.800000000000e+01
 LO BND       X0000047   8.000000000000e+00
 UP BND       X0000047   3.200000000000e+01
ENDATA
