\* independent_energy_feasibility *\
Minimize
OBJ: t
Subject To
_C1: w_000 + w_001 + w_002 + w_003 + w_004 + w_005 + w_006 + w_007 + w_008
 + w_009 + w_010 + w_011 + w_012 + w_013 + w_014 + w_015 + w_016 + w_017
 + w_018 + w_019 + w_020 + w_021 + w_022 + w_023 = 365
_C2: - t + 0.00260309631456 w_000 + 0.00287710645294 w_001
 + 0.00287710645294 w_002 + 0.00287710645294 w_003 + 0.00274010138375 w_004
 + 0.00287710645294 w_005 + 0.00287710645294 w_006 + 0.00260309631456 w_007
 + 0.00274010138375 w_008 + 0.00260309631456 w_009 + 0.00274010138375 w_010
 + 0.00274010138375 w_011 + 0.00274010138375 w_012 + 0.00274010138375 w_013
 + 0.00274010138375 w_014 + 0.00274010138375 w_015 + 0.00274010138375 w_016
 + 0.00287710645294 w_017 + 0.00287710645294 w_018 + 0.00287710645294 w_019
 + 0.00287710645294 w_020 + 0.00260309631456 w_021 + 0.00260309631456 w_022
 + 0.00260309631456 w_023 <= 1
_C3: - t - 0.00260309631456 w_000 - 0.00287710645294 w_001
 - 0.00287710645294 w_002 - 0.00287710645294 w_003 - 0.00274010138375 w_004
 - 0.00287710645294 w_005 - 0.00287710645294 w_006 - 0.00260309631456 w_007
 - 0.00274010138375 w_008 - 0.00260309631456 w_009 - 0.00274010138375 w_010
 - 0.00274010138375 w_011 - 0.00274010138375 w_012 - 0.00274010138375 w_013
 - 0.00274010138375 w_014 - 0.00274010138375 w_015 - 0.00274010138375 w_016
 - 0.00287710645294 w_017 - 0.00287710645294 w_018 - 0.00287710645294 w_019
 - 0.00287710645294 w_020 - 0.00260309631456 w_021 - 0.00260309631456 w_022
 - 0.00260309631456 w_023 <= -1
_C4: - t + 0.00252695412679 w_000 + 5.88580982827e-05 w_001
 + 0.000550151296663 w_002 + 0.0157173371181 w_003 + 0.0103231238804 w_004
 + 0.00713780855119 w_005 + 0.0117551353438 w_006 + 0.00711950388489 w_007
 + 0.00406039973548 w_008 + 0.000209846312606 w_009 + 0.00116189122194 w_010
 + 0.023738219405 w_011 + 0.00872869642763 w_012 + 0.00430341693509 w_013
 + 0.000853037902087 w_014 + 0.000310774804163 w_015 + 0.0101955980008 w_016
 + 0.0104965631219 w_017 + 0.00127515766537 w_018 + 0.00500324174629 w_019
 + 0.0128335936945 w_020 + 0.000892074372769 w_021 + 0.0148113067014 w_022
 + 0.00206579789282 w_023 <= 1
_C5: - t - 0.00252695412679 w_000 - 5.88580982827e-05 w_001
 - 0.000550151296663 w_002 - 0.0157173371181 w_003 - 0.0103231238804 w_004
 - 0.00713780855119 w_005 - 0.0117551353438 w_006 - 0.00711950388489 w_007
 - 0.00406039973548 w_008 - 0.000209846312606 w_009 - 0.00116189122194 w_010
 - 0.023738219405 w_011 - 0.00872869642763 w_012 - 0.00430341693509 w_013
 - 0.000853037902087 w_014 - 0.000310774804163 w_015 - 0.0101955980008 w_016
 - 0.0104965631219 w_017 - 0.00127515766537 w_018 - 0.00500324174629 w_019
 - 0.0128335936945 w_020 - 0.000892074372769 w_021 - 0.0148113067014 w_022
 - 0.00206579789282 w_023 <= -1
_C6: - t + 0.00106645928998 w_000 + 0.00462667259171 w_001
 + 0.00259517108577 w_002 + 0.00127931664445 w_003 + 0.00493961388436 w_004
 + 0.00461437811682 w_005 + 0.000324198884116 w_006 + 0.0018404187034 w_007
 + 0.00420298227423 w_008 + 0.00311583469116 w_009 + 0.0010210339209 w_010
 + 0.000414506492865 w_011 + 0.000928257542093 w_012 + 0.00203604404286 w_013
 + 0.003109169012 w_014 + 0.00181642225843 w_015 + 0.000412037722806 w_016
 + 0.000576013430109 w_017 + 0.00326006023799 w_018 + 0.00300207376685 w_019
 + 0.00280417715894 w_020 + 0.00404379598084 w_021 + 0.00408561694564 w_022
 + 0.00521088233842 w_023 <= 1
_C7: - t - 0.00106645928998 w_000 - 0.00462667259171 w_001
 - 0.00259517108577 w_002 - 0.00127931664445 w_003 - 0.00493961388436 w_004
 - 0.00461437811682 w_005 - 0.000324198884116 w_006 - 0.0018404187034 w_007
 - 0.00420298227423 w_008 - 0.00311583469116 w_009 - 0.0010210339209 w_010
 - 0.000414506492865 w_011 - 0.000928257542093 w_012 - 0.00203604404286 w_013
 - 0.003109169012 w_014 - 0.00181642225843 w_015 - 0.000412037722806 w_016
 - 0.000576013430109 w_017 - 0.00326006023799 w_018 - 0.00300207376685 w_019
 - 0.00280417715894 w_020 - 0.00404379598084 w_021 - 0.00408561694564 w_022
 - 0.00521088233842 w_023 <= -1
Bounds
 10 <= w_000 <= 40
 13.5 <= w_001 <= 54
 18 <= w_002 <= 72
 1 <= w_003 <= 4
 2 <= w_004 <= 8
 1.5 <= w_005 <= 6
 2 <= w_006 <= 8
 2 <= w_007 <= 8
 9 <= w_008 <= 36
 14 <= w_009 <= 56
 21.5 <= w_010 <= 86
 1 <= w_011 <= 4
 3 <= w_012 <= 12
 7.5 <= w_013 <= 30
 9 <= w_014 <= 36
 20.5 <= w_015 <= 82
 3 <= w_016 <= 12
 3 <= w_017 <= 12
 13.5 <= w_018 <= 54
 4 <= w_019 <= 16
 1.5 <= w_020 <= 6
 14.5 <= w_021 <= 58
 1.5 <= w_022 <= 6
 6 <= w_023 <= 24
End
