*SENSE:Minimize
NAME          independent_energy_feasibility
ROWS
 N  OBJ
 E  _C1
 L  _C2
 L  _C3
 L  _C4
 L  _C5
 L  _C6
 L  _C7
COLUMNS
    t         _C2       -1.000000000000e+00
    t         _C3       -1.000000000000e+00
    t         _C4       -1.000000000000e+00
    t         _C5       -1.000000000000e+00
    t         _C6       -1.000000000000e+00
    t         _C7       -1.000000000000e+00
    t         OBJ        1.000000000000e+00
    w_000     _C1        1.000000000000e+00
    w_000     _C2        2.603096314564e-03
    w_000     _C3       -2.603096314564e-03
    w_000     _C4        2.526954126787e-03
    w_000     _C5       -2.526954126787e-03
    w_000     _C6        1.066459289982e-03
    w_000     _C7       -1.066459289982e-03
    w_001     _C1        1.000000000000e+00
    w_001     _C2        2.877106452939e-03
    w_001     _C3       -2.877106452939e-03
    w_001     _C4        5.885809828271e-05
    w_001     _C5       -5.885809828271e-05
    w_001     _C6        4.626672591715e-03
    w_001     _C7       -4.626672591715e-03
    w_002     _C1        1.000000000000e+00
    w_002     _C2        2.877106452939e-03
    w_002     _C3       -2.877106452939e-03
    w_002     _C4        5.501512966631e-04
    w_002     _C5       -5.501512966631e-04
    w_002     _C6        2.595171085765e-03
    w_002     _C7       -2.595171085765e-03
    w_003     _C1        1.000000000000e+00
    w_003     _C2        2.877106452939e-03
    w_003     _C3       -2.877106452939e-03
    w_003     _C4        1.571733711805e-02
    w_003     _C5       -1.571733711805e-02
    w_003     _C6        1.279316644448e-03
    w_003     _C7       -1.279316644448e-03
    w_004     _C1        1.000000000000e+00
    w_004     _C2        2.740101383751e-03
    w_004     _C3       -2.740101383751e-03
    w_004     _C4        1.032312388042e-02
    w_004     _C5       -1.032312388042e-02
    w_004     _C6        4.939613884363e-03
    w_004     _C7       -4.939613884363e-03
    w_005     _C1        1.000000000000e+00
    w_005     _C2        2.877106452939e-03
    w_005     _C3       -2.877106452939e-03
    w_005     _C4        7.137808551192e-03
    w_005     _C5       -7.137808551192e-03
    w_005     _C6        4.614378116822e-03
    w_005     _C7       -4.614378116822e-03
    w_006     _C1        1.000000000000e+00
    w_006     _C2        2.877106452939e-03
    w_006     _C3       -2.877106452939e-03
    w_006     _C4        1.175513534379e-02
    w_006     _C5       -1.175513534379e-02
    w_006     _C6        3.241988841159e-04
    w_006     _C7       -3.241988841159e-04
    w_007     _C1        1.000000000000e+00
    w_007     _C2        2.603096314564e-03
    w_007     _C3       -2.603096314564e-03
    w_007     _C4        7.119503884887e-03
    w_007     _C5       -7.119503884887e-03
    w_007     _C6        1.840418703402e-03
    w_007     _C7       -1.840418703402e-03
    w_008     _C1        1.000000000000e+00
    w_008     _C2        2.740101383751e-03
    w_008     _C3       -2.740101383751e-03
    w_008     _C4        4.060399735482e-03
    w_008     _C5       -4.060399735482e-03
    w_008     _C6        4.202982274231e-03
    w_008     _C7       -4.202982274231e-03
    w_009     _C1        1.000000000000e+00
    w_009     _C2        2.603096314564e-03
    w_009     _C3       -2.603096314564e-03
    w_009     _C4        2.098463126059e-04
    w_009     _C5       -2.098463126059e-04
    w_009     _C6        3.115834691157e-03
    w_009     _C7       -3.115834691157e-03
    w_010     _C1        1.000000000000e+00
    w_010     _C2        2.740101383751e-03
    w_010     _C3       -2.740101383751e-03
    w_010     _C4        1.161891221942e-03
    w_010     _C5       -1.161891221942e-03
    w_010     _C6        1.021033920901e-03
    w_010     _C7       -1.021033920901e-03
    w_011     _C1        1.000000000000e+00
    w_011     _C2        2.740101383751e-03
    w_011     _C3       -2.740101383751e-03
    w_011     _C4        2.373821940499e-02
    w_011     _C5       -2.373821940499e-02
    w_011     _C6        4.145064928653e-04
    w_011     _C7       -4.145064928653e-04
    w_012     _C1        1.000000000000e+00
    w_012     _C2        2.740101383751e-03
    w_012     _C3       -2.740101383751e-03
    w_012     _C4        8.728696427627e-03
    w_012     _C5       -8.728696427627e-03
    w_012     _C6        9.282575420925e-04
    w_012     _C7       -9.282575420925e-04
    w_013     _C1        1.000000000000e+00
    w_013     _C2        2.740101383751e-03
    w_013     _C3       -2.740101383751e-03
    w_013     _C4        4.303416935093e-03
    w_013     _C5       -4.303416935093e-03
    w_013     _C6        2.036044042858e-03
    w_013     _C7       -2.036044042858e-03
    w_014     _C1        1.000000000000e+00
    w_014     _C2        2.740101383751e-03
    w_014     _C3       -2.740101383751e-03
    w_014     _C4        8.530379020870e-04
    w_014     _C5       -8.530379020870e-04
    w_014     _C6        3.109169011998e-03
    w_014     _C7       -3.109169011998e-03
    w_015     _C1        1.000000000000e+00
    w_015     _C2        2.740101383751e-03
    w_015     _C3       -2.740101383751e-03
    w_015     _C4        3.107748041628e-04
    w_015     _C5       -3.107748041628e-04
    w_015     _C6        1.816422258431e-03
    w_015     _C7       -1.816422258431e-03
    w_016     _C1        1.000000000000e+00
    w_016     _C2        2.740101383751e-03
    w_016     _C3       -2.740101383751e-03
    w_016     _C4        1.019559800081e-02
    w_016     _C5       -1.019559800081e-02
    w_016     _C6        4.120377228065e-04
    w_016     _C7       -4.120377228065e-04
    w_017     _C1        1.000000000000e+00
    w_017     _C2        2.877106452939e-03
    w_017     _C3       -2.877106452939e-03
    w_017     _C4        1.049656312192e-02
    w_017     _C5       -1.049656312192e-02
    w_017     _C6        5.760134301091e-04
    w_017     _C7       -5.760134301091e-04
    w_018     _C1        1.000000000000e+00
    w_018     _C2        2.877106452939e-03
    w_018     _C3       -2.877106452939e-03
    w_018     _C4        1.275157665372e-03
    w_018     _C5       -1.275157665372e-03
    w_018     _C6        3.260060237989e-03
    w_018     _C7       -3.260060237989e-03
    w_019     _C1        1.000000000000e+00
    w_019     _C2        2.877106452939e-03
    w_019     _C3       -2.877106452939e-03
    w_019     _C4        5.003241746289e-03
    w_019     _C5       -5.003241746289e-03
    w_019     _C6        3.002073766849e-03
    w_019     _C7       -3.002073766849e-03
    w_020     _C1        1.000000000000e+00
    w_020     _C2        2.877106452939e-03
    w_020     _C3       -2.877106452939e-03
    w_020     _C4        1.283359369446e-02
    w_020     _C5       -1.283359369446e-02
    w_020     _C6        2.804177158939e-03
    w_020     _C7       -2.804177158939e-03
    w_021     _C1        1.000000000000e+00
    w_021     _C2        2.603096314564e-03
    w_021     _C3       -2.603096314564e-03
    w_021     _C4        8.920743727694e-04
    w_021     _C5       -8.920743727694e-04
    w_021     _C6        4.043795980842e-03
    w_021     _C7       -4.043795980842e-03
    w_022     _C1        1.000000000000e+00
    w_022     _C2        2.603096314564e-03
    w_022     _C3       -2.603096314564e-03
    w_022     _C4        1.481130670136e-02
    w_022     _C5       -1.481130670136e-02
    w_022     _C6        4.085616945638e-03
    w_022     _C7       -4.085616945638e-03
    w_023     _C1        1.000000000000e+00
    w_023     _C2        2.603096314564e-03
    w_023     _C3       -2.603096314564e-03
    w_023     _C4        2.065797892819e-03
    w_023     _C5       -2.065797892819e-03
    w_023     _C6        5.210882338419e-03
    w_023     _C7       -5.210882338419e-03
RHS
    RHS       _C1        3.650000000000e+02
    RHS       _C2        1.000000000000e+00
    RHS       _C3       -1.000000000000e+00
    RHS       _C4        1.000000000000e+00
    RHS       _C5       -1.000000000000e+00
    RHS       _C6        1.000000000000e+00
    RHS       _C7       -1.000000000000e+00
BOUNDS
 LO BND       w_000      1.000000000000e+01
 UP BND       w_000      4.000000000000e+01
 LO BND       w_001      1.350000000000e+01
 UP BND       w_001      5.400000000000e+01
 LO BND       w_002      1.800000000000e+01
 UP BND       w_002      7.200000000000e+01
 LO BND       w_003      1.000000000000e+00
 UP BND       w_003      4.000000000000e+00
 LO BND       w_004      2.000000000000e+00
 UP BND       w_004      8.000000000000e+00
 LO BND       w_005      1.500000000000e+00
 UP BND       w_005      6.000000000000e+00
 LO BND       w_006      2.000000000000e+00
 UP BND       w_006      8.000000000000e+00
 LO BND       w_007      2.000000000000e+00
 UP BND       w_007      8.000000000000e+00
 LO BND       w_008      9.000000000000e+00
 UP BND       w_008      3.600000000000e+01
 LO BND       w_009      1.400000000000e+01
 UP BND       w_009      5.600000000000e+01
 LO BND       w_010      2.150000000000e+01
 UP BND       w_010      8.600000000000e+01
 LO BND       w_011      1.000000000000e+00
 UP BND       w_011      4.000000000000e+00
 LO BND       w_012      3.000000000000e+00
 UP BND       w_012      1.200000000000e+01
 LO BND       w_013      7.500000000000e+00
 UP BND       w_013      3.000000000000e+01
 LO BND       w_014      9.000000000000e+00
 UP BND       w_014      3.600000000000e+01
 LO BND       w_015      2.050000000000e+01
 UP BND       w_015      8.200000000000e+01
 LO BND       w_016      3.000000000000e+00
 UP BND       w_016      1.200000000000e+01
 LO BND       w_017      3.000000000000e+00
 UP BND       w_017      1.200000000000e+01
 LO BND       w_018      1.350000000000e+01
 UP BND       w_018      5.400000000000e+01
 LO BND       w_019      4.000000000000e+00
 UP BND       w_019      1.600000000000e+01
 LO BND       w_020      1.500000000000e+00
 UP BND       w_020      6.000000000000e+00
 LO BND       w_021      1.450000000000e+01
 UP BND       w_021      5.800000000000e+01
 LO BND       w_022      1.500000000000e+00
 UP BND       w_022      6.000000000000e+00
 LO BND       w_023      6.000000000000e+00
 UP BND       w_023      2.400000000000e+01
ENDATA
