\* U11R14_four_input_channels *\
Minimize
OBJ: worst_relative_error
Subject To
channel_0: 0.00287710645294 w_000 + 0.00274010138375 w_001
 + 0.00274010138375 w_002 + 0.00274010138375 w_003 + 0.00287710645294 w_004
 + 0.00274010138375 w_005 + 0.00287710645294 w_006 + 0.00274010138375 w_007
 + 0.00287710645294 w_008 + 0.00274010138375 w_009 + 0.00274010138375 w_010
 + 0.00260309631456 w_011 + 0.00260309631456 w_012 + 0.00260309631456 w_013
 + 0.00274010138375 w_014 + 0.00274010138375 w_015 + 0.00260309631456 w_016
 + 0.00274010138375 w_017 + 0.00260309631456 w_018 + 0.00287710645294 w_019
 + 0.00260309631456 w_020 + 0.00287710645294 w_021 + 0.00287710645294 w_022
 + 0.00287710645294 w_023 + 0.00287710645294 w_024 + 0.00260309631456 w_025
 + 0.00287710645294 w_026 + 0.00260309631456 w_027 + 0.00287710645294 w_028
 + 0.00287710645294 w_029 + 0.00287710645294 w_030 + 0.00287710645294 w_031
 + 0.00260309631456 w_032 + 0.00274010138375 w_033 + 0.00274010138375 w_034
 + 0.00260309631456 w_035 + 0.00260309631456 w_036 + 0.00274010138375 w_037
 + 0.00260309631456 w_038 + 0.00287710645294 w_039 + 0.00274010138375 w_040
 + 0.00287710645294 w_041 + 0.00287710645294 w_042 + 0.00287710645294 w_043
 + 0.00274010138375 w_044 + 0.00274010138375 w_045 + 0.00260309631456 w_046
 + 0.00287710645294 w_047 - worst_relative_error <= 1
channel_1: - 0.00287710645294 w_000 - 0.00274010138375 w_001
 - 0.00274010138375 w_002 - 0.00274010138375 w_003 - 0.00287710645294 w_004
 - 0.00274010138375 w_005 - 0.00287710645294 w_006 - 0.00274010138375 w_007
 - 0.00287710645294 w_008 - 0.00274010138375 w_009 - 0.00274010138375 w_010
 - 0.00260309631456 w_011 - 0.00260309631456 w_012 - 0.00260309631456 w_013
 - 0.00274010138375 w_014 - 0.00274010138375 w_015 - 0.00260309631456 w_016
 - 0.00274010138375 w_017 - 0.00260309631456 w_018 - 0.00287710645294 w_019
 - 0.00260309631456 w_020 - 0.00287710645294 w_021 - 0.00287710645294 w_022
 - 0.00287710645294 w_023 - 0.00287710645294 w_024 - 0.00260309631456 w_025
 - 0.00287710645294 w_026 - 0.00260309631456 w_027 - 0.00287710645294 w_028
 - 0.00287710645294 w_029 - 0.00287710645294 w_030 - 0.00287710645294 w_031
 - 0.00260309631456 w_032 - 0.00274010138375 w_033 - 0.00274010138375 w_034
 - 0.00260309631456 w_035 - 0.00260309631456 w_036 - 0.00274010138375 w_037
 - 0.00260309631456 w_038 - 0.00287710645294 w_039 - 0.00274010138375 w_040
 - 0.00287710645294 w_041 - 0.00287710645294 w_042 - 0.00287710645294 w_043
 - 0.00274010138375 w_044 - 0.00274010138375 w_045 - 0.00260309631456 w_046
 - 0.00287710645294 w_047 - worst_relative_error <= -1
channel_2: 0.0112572686465 w_000 + 0.00151251154281 w_002
 + 0.0017779797696 w_003 + 0.0117551353438 w_004 + 0.00845068798746 w_005
 + 0.000975001590281 w_006 + 0.0109740014071 w_007 + 0.00500324174629 w_008
 + 0.00102101608292 w_009 + 0.023738219405 w_010 + 0.00572106783153 w_011
 + 3.56991558313e-05 w_012 + 0.000313201942236 w_013 + 0.0103231238804 w_014
 + 0.0149962748487 w_015 + 0.00783621753185 w_016 + 0.00141704411192 w_017
 + 0.00476689917638 w_018 + 0.000889950626955 w_019 + 0.0157491933053 w_020
 + 0.00684948477421 w_021 + 0.00378957157878 w_022 + 0.0103465862151 w_023
 + 0.0107274446312 w_024 + 0.00558312548435 w_025 + 0.0157173371181 w_026
 + 0.00161637282621 w_027 + 0.00245039814672 w_028 + 0.0132699728939 w_029
 + 0.00167877050085 w_030 + 0.00570994344869 w_031 + 0.0049129319838 w_032
 + 0.00083200270545 w_033 + 0.00298993071431 w_034 + 0.00765772175269 w_035
 + 0.0148113067014 w_036 + 0.0117398646001 w_037 + 0.000209846312606 w_038
 + 0.000899962571508 w_039 + 0.00440748047999 w_040 + 0.000982990919773 w_041
 + 0.011927057624 w_042 + 0.0122054705872 w_043 + 0.00215459069401 w_044
 + 0.00874639430941 w_045 + 0.00392599696466 w_046 + 0.00801865741037 w_047
 - worst_relative_error <= 1
channel_3: - 0.0112572686465 w_000 - 0.00151251154281 w_002
 - 0.0017779797696 w_003 - 0.0117551353438 w_004 - 0.00845068798746 w_005
 - 0.000975001590281 w_006 - 0.0109740014071 w_007 - 0.00500324174629 w_008
 - 0.00102101608292 w_009 - 0.023738219405 w_010 - 0.00572106783153 w_011
 - 3.56991558313e-05 w_012 - 0.000313201942236 w_013 - 0.0103231238804 w_014
 - 0.0149962748487 w_015 - 0.00783621753185 w_016 - 0.00141704411192 w_017
 - 0.00476689917638 w_018 - 0.000889950626955 w_019 - 0.0157491933053 w_020
 - 0.00684948477421 w_021 - 0.00378957157878 w_022 - 0.0103465862151 w_023
 - 0.0107274446312 w_024 - 0.00558312548435 w_025 - 0.0157173371181 w_026
 - 0.00161637282621 w_027 - 0.00245039814672 w_028 - 0.0132699728939 w_029
 - 0.00167877050085 w_030 - 0.00570994344869 w_031 - 0.0049129319838 w_032
 - 0.00083200270545 w_033 - 0.00298993071431 w_034 - 0.00765772175269 w_035
 - 0.0148113067014 w_036 - 0.0117398646001 w_037 - 0.000209846312606 w_038
 - 0.000899962571508 w_039 - 0.00440748047999 w_040 - 0.000982990919773 w_041
 - 0.011927057624 w_042 - 0.0122054705872 w_043 - 0.00215459069401 w_044
 - 0.00874639430941 w_045 - 0.00392599696466 w_046 - 0.00801865741037 w_047
 - worst_relative_error <= -1
channel_4: 0.000484273934726 w_000 + 0.00364365772972 w_001
 + 0.000755394262578 w_002 + 0.00464030020244 w_003 + 0.000324198884116 w_004
 + 0.00130425122204 w_005 + 0.00307816126006 w_006 + 0.0024664494149 w_007
 + 0.00300207376685 w_008 + 0.00259551671357 w_009 + 0.000414506492865 w_010
 + 0.0033279020392 w_011 + 0.00467061669876 w_012 + 0.00224623512566 w_013
 + 0.00493961388436 w_014 + 0.00314062114255 w_015 + 0.00103006961932 w_016
 + 0.00249790154545 w_017 + 0.00500760381178 w_018 + 0.00211158840666 w_019
 + 0.000329531427443 w_020 + 0.00234345529057 w_021 + 0.00464538586876 w_022
 + 0.00423245938873 w_023 + 0.00107509998519 w_024 + 0.00253231620007 w_025
 + 0.00127931664445 w_026 + 0.00136636547672 w_027 + 0.00262045129117 w_028
 + 0.00208433318521 w_029 + 0.00343371352392 w_030 + 0.00221236360045 w_031
 + 0.0014411692095 w_032 + 0.00143361477312 w_033 + 0.00190677924258 w_034
 + 0.00212304349973 w_035 + 0.00408561694564 w_036 + 0.00386481015158 w_037
 + 0.00311583469116 w_038 + 0.000955364637338 w_039 + 0.000695156273145 w_040
 + 0.00514585493507 w_041 + 0.00116585197255 w_042 + 0.00144077420629 w_043
 + 0.00341717276453 w_044 + 0.000370315508814 w_045 + 0.00094455142448 w_046
 + 0.000311904409223 w_047 - worst_relative_error <= 1
channel_5: - 0.000484273934726 w_000 - 0.00364365772972 w_001
 - 0.000755394262578 w_002 - 0.00464030020244 w_003 - 0.000324198884116 w_004
 - 0.00130425122204 w_005 - 0.00307816126006 w_006 - 0.0024664494149 w_007
 - 0.00300207376685 w_008 - 0.00259551671357 w_009 - 0.000414506492865 w_010
 - 0.0033279020392 w_011 - 0.00467061669876 w_012 - 0.00224623512566 w_013
 - 0.00493961388436 w_014 - 0.00314062114255 w_015 - 0.00103006961932 w_016
 - 0.00249790154545 w_017 - 0.00500760381178 w_018 - 0.00211158840666 w_019
 - 0.000329531427443 w_020 - 0.00234345529057 w_021 - 0.00464538586876 w_022
 - 0.00423245938873 w_023 - 0.00107509998519 w_024 - 0.00253231620007 w_025
 - 0.00127931664445 w_026 - 0.00136636547672 w_027 - 0.00262045129117 w_028
 - 0.00208433318521 w_029 - 0.00343371352392 w_030 - 0.00221236360045 w_031
 - 0.0014411692095 w_032 - 0.00143361477312 w_033 - 0.00190677924258 w_034
 - 0.00212304349973 w_035 - 0.00408561694564 w_036 - 0.00386481015158 w_037
 - 0.00311583469116 w_038 - 0.000955364637338 w_039 - 0.000695156273145 w_040
 - 0.00514585493507 w_041 - 0.00116585197255 w_042 - 0.00144077420629 w_043
 - 0.00341717276453 w_044 - 0.000370315508814 w_045 - 0.00094455142448 w_046
 - 0.000311904409223 w_047 - worst_relative_error <= -1
channel_6: 0.001495938094 w_000 + 0.00372202710365 w_001
 + 0.00299156221212 w_002 + 0.00223252551525 w_003 + 8.27326451401e-05 w_004
 + 0.00087410885795 w_005 + 0.00423051104599 w_006 + 0.00143675364008 w_007
 + 0.00423836044306 w_008 + 0.0030956452173 w_009 + 0.000707230676197 w_011
 + 0.00248040947479 w_012 + 0.00251243501484 w_013 + 0.00129483654102 w_014
 + 0.00265246825861 w_017 + 0.000603618634845 w_018 + 0.00500540352494 w_019
 + 0.000370020577979 w_020 + 0.000409738527164 w_021 + 0.00212043612506 w_022
 + 7.72380671896e-05 w_023 + 1.00472282523e-05 w_024 + 0.00149797893724 w_025
 + 0.00153016146524 w_027 + 0.00276220282968 w_028 + 0.000495767919075 w_029
 + 0.00380334685732 w_030 + 0.00346409591586 w_031 + 0.00106767498975 w_032
 + 0.00343662302611 w_033 + 0.00167066567283 w_034 + 0.00146689532484 w_035
 + 0.00233770743602 w_037 + 0.00266298645068 w_038 + 0.00483318775318 w_039
 + 0.00114648293635 w_040 + 0.00431371465495 w_041 + 0.000215701431542 w_042
 + 0.000101885173996 w_043 + 0.00183110734898 w_044 + 0.000926071866568 w_045
 + 0.00140394316032 w_046 + 0.00261102344207 w_047 - worst_relative_error <= 1
channel_7: - 0.001495938094 w_000 - 0.00372202710365 w_001
 - 0.00299156221212 w_002 - 0.00223252551525 w_003 - 8.27326451401e-05 w_004
 - 0.00087410885795 w_005 - 0.00423051104599 w_006 - 0.00143675364008 w_007
 - 0.00423836044306 w_008 - 0.0030956452173 w_009 - 0.000707230676197 w_011
 - 0.00248040947479 w_012 - 0.00251243501484 w_013 - 0.00129483654102 w_014
 - 0.00265246825861 w_017 - 0.000603618634845 w_018 - 0.00500540352494 w_019
 - 0.000370020577979 w_020 - 0.000409738527164 w_021 - 0.00212043612506 w_022
 - 7.72380671896e-05 w_023 - 1.00472282523e-05 w_024 - 0.00149797893724 w_025
 - 0.00153016146524 w_027 - 0.00276220282968 w_028 - 0.000495767919075 w_029
 - 0.00380334685732 w_030 - 0.00346409591586 w_031 - 0.00106767498975 w_032
 - 0.00343662302611 w_033 - 0.00167066567283 w_034 - 0.00146689532484 w_035
 - 0.00233770743602 w_037 - 0.00266298645068 w_038 - 0.00483318775318 w_039
 - 0.00114648293635 w_040 - 0.00431371465495 w_041 - 0.000215701431542 w_042
 - 0.000101885173996 w_043 - 0.00183110734898 w_044 - 0.000926071866568 w_045
 - 0.00140394316032 w_046 - 0.00261102344207 w_047 - worst_relative_error
 <= -1
total_days: w_000 + w_001 + w_002 + w_003 + w_004 + w_005 + w_006 + w_007
 + w_008 + w_009 + w_010 + w_011 + w_012 + w_013 + w_014 + w_015 + w_016
 + w_017 + w_018 + w_019 + w_020 + w_021 + w_022 + w_023 + w_024 + w_025
 + w_026 + w_027 + w_028 + w_029 + w_030 + w_031 + w_032 + w_033 + w_034
 + w_035 + w_036 + w_037 + w_038 + w_039 + w_040 + w_041 + w_042 + w_043
 + w_044 + w_045 + w_046 + w_047 = 365
Bounds
 1.5 <= w_000 <= 6
 5 <= w_001 <= 20
 6 <= w_002 <= 24
 10 <= w_003 <= 40
 1.5 <= w_004 <= 6
 2 <= w_005 <= 8
 7.5 <= w_006 <= 30
 1 <= w_007 <= 4
 1 <= w_008 <= 4
 10 <= w_009 <= 40
 0.5 <= w_010 <= 2
 2.5 <= w_011 <= 10
 9 <= w_012 <= 36
 11 <= w_013 <= 44
 2 <= w_014 <= 8
 0.5 <= w_015 <= 2
 2 <= w_016 <= 8
 6 <= w_017 <= 24
 4 <= w_018 <= 16
 9 <= w_019 <= 36
 0.5 <= w_020 <= 2
 1 <= w_021 <= 4
 4 <= w_022 <= 16
 1.5 <= w_023 <= 6
 1.5 <= w_024 <= 6
 2 <= w_025 <= 8
 1 <= w_026 <= 4
 2.5 <= w_027 <= 10
 6 <= w_028 <= 24
 0.5 <= w_029 <= 2
 8 <= w_030 <= 32
 2.5 <= w_031 <= 10
 2 <= w_032 <= 8
 8 <= w_033 <= 32
 5 <= w_034 <= 20
 0.5 <= w_035 <= 2
 0.5 <= w_036 <= 2
 0.5 <= w_037 <= 2
 9.5 <= w_038 <= 38
 11 <= w_039 <= 44
 2 <= w_040 <= 8
 9.5 <= w_041 <= 38
 0.5 <= w_042 <= 2
 0.5 <= w_043 <= 2
 6.5 <= w_044 <= 26
 0.5 <= w_045 <= 2
 2 <= w_046 <= 8
 1 <= w_047 <= 4
End
